     Program PWSCF v.7.0 starts on 19Feb2022 at 18:27:31

     Waiting for input...
     Reading input from standard input
Warning: card &CELL ignored
Warning: card  CELL_DYNAMICS = 'BFGS', ignored
Warning: card  PRESS=0.1D0, ignored
Warning: card / ignored

     Current dimensions of program PWSCF are:
     Max number of different atomic species (ntypx) = 10
     Max number of k-points (npk) =  40000
     Max angular momentum in pseudopotentials (lmaxx) =  4

     Subspace diagonalization in iterative solution of the eigenvalue problem:
     a serial algorithm will be used

     Using Slab Decomposition

     bravais-lattice index     =            2
     lattice parameter (alat)  =       9.0000  a.u.
     unit-cell volume          =     182.2500 (a.u.)^3
     number of atoms/cell      =            2
     number of atomic types    =            2
     number of electrons       =         8.00
     number of Kohn-Sham states=            4
     kinetic-energy cutoff     =      40.0000  Ry
     charge density cutoff     =     480.0000  Ry
     scf convergence threshold =      1.0E-08
     mixing beta               =       0.7000
     number of iterations used =            8  plain     mixing
     Exchange-correlation= SLA  PZ   NOGX NOGC
                           (   1   1   0   0   0   0   0)

     celldm(1)=   9.000000  celldm(2)=   0.000000  celldm(3)=   0.000000
     celldm(4)=   0.000000  celldm(5)=   0.000000  celldm(6)=   0.000000

     crystal axes: (cart. coord. in units of alat)
               a(1) = (  -0.500000   0.000000   0.500000 )
               a(2) = (   0.000000   0.500000   0.500000 )
               a(3) = (  -0.500000   0.500000   0.000000 )

     reciprocal axes: (cart. coord. in units 2 pi/alat)
               b(1) = ( -1.000000 -1.000000  1.000000 )
               b(2) = (  1.000000  1.000000  1.000000 )
               b(3) = ( -1.000000  1.000000 -1.000000 )

     PseudoPot. # 1 for B  read from file:
     ./pseudo_dir/B_LDA.UPF
     MD5 check sum: a9970de764dbc07c3a3d9583c605c3b2
     Pseudo is Ultrasoft + core correction, Zval =  3.0
     Generated by new atomic code, or converted to UPF format
     Using radial grid of  781 points,  4 beta functions with:
                l(1) =   0
                l(2) =   0
                l(3) =   1
                l(4) =   1
     Q(r) pseudized with  8 coefficients,  rinner =    1.100   1.100   1.100

     PseudoPot. # 2 for As read from file:
     ./pseudo_dir/As_LDA.UPF
     MD5 check sum: 6d2e8cbe4ed9d0db7c6ef7a361cc050d
     Pseudo is Ultrasoft + core correction, Zval =  5.0
     Generated by new atomic code, or converted to UPF format
     Using radial grid of  875 points,  6 beta functions with:
                l(1) =   0
                l(2) =   0
                l(3) =   1
                l(4) =   1
                l(5) =   2
                l(6) =   2
     Q(r) pseudized with  8 coefficients,  rinner =    1.300   1.300   1.300
                                                       1.300   1.300

     atomic species   valence    mass     pseudopotential
        B              3.00    10.81100     B ( 1.00)
        As             5.00    74.92160     As( 1.00)

      2 Sym. Ops. (no inversion) found

   Cartesian axes

     site n.     atom                  positions (alat units)
         1           B   tau(   1) = (   0.0000000   0.0000000   0.0000000  )
         2           As  tau(   2) = (  -0.2750000   0.2750000   0.2500000  )

     number of k points=    10
                       cart. coord. in units 2pi/alat
        k(    1) = (   0.0000000   0.0000000   0.0000000), wk =   0.0740741
        k(    2) = (  -0.3333333   0.3333333  -0.3333333), wk =   0.1481481
        k(    3) = (   0.0000000   0.6666667   0.0000000), wk =   0.2962963
        k(    4) = (   0.6666667  -0.0000000   0.6666667), wk =   0.2962963
        k(    5) = (   0.3333333   0.3333333   0.3333333), wk =   0.2962963
        k(    6) = (  -0.3333333   0.3333333   0.3333333), wk =   0.1481481
        k(    7) = (   0.0000000   0.0000000   0.6666667), wk =   0.1481481
        k(    8) = (   0.6666667   0.0000000  -0.6666667), wk =   0.2962963
        k(    9) = (  -0.6666667   0.6666667   0.0000000), wk =   0.1481481
        k(   10) = (  -0.6666667  -0.6666667   0.0000000), wk =   0.1481481

     Initial potential from superposition of free atoms

     starting charge       7.9996, renormalised to       8.0000
     Starting wfcs are    8 randomized atomic wfcs

     Self-consistent Calculation

     iteration #  1     ecut=    40.00 Ry     beta= 0.70
     CG style diagonalization
     ethr =  1.00E-02,  avg # of iterations =  2.6

     total energy              =     -46.07425800 Ry
     estimated scf accuracy    <       0.17560885 Ry

[...]

     total energy              =     -46.12466698 Ry
     estimated scf accuracy    <       0.00000001 Ry

     iteration #  8     ecut=    40.00 Ry     beta= 0.70
     CG style diagonalization
     ethr =  1.69E-10,  avg # of iterations =  4.0

     End of self-consistent calculation

          k = 0.0000 0.0000 0.0000 (   749 PWs)   bands (ev):

    -6.9547   7.4372   8.6636   9.8104

          k =-0.3333 0.3333-0.3333 (   769 PWs)   bands (ev):

[...]

          k = 0.6667 0.0000-0.6667 (   776 PWs)   bands (ev):

[...]

          k =-0.6667-0.6667 0.0000 (   776 PWs)   bands (ev):

    -3.1776   0.7680   2.2834   5.6811

     highest occupied level (ev):     9.8104

!    total energy              =     -46.12466698 Ry
     estimated scf accuracy    <          1.4E-09 Ry

     The total energy is the sum of the following terms:
     one-electron contribution =       6.71809643 Ry
     hartree contribution      =       1.29616957 Ry
     xc contribution           =     -34.18025578 Ry
     ewald contribution        =     -19.95867719 Ry

     convergence has been achieved in   8 iterations

     Forces acting on atoms (cartesian axes, Ry/au):

     atom    1 type  1   force =    -0.08760829    0.08760829   -0.02762211
     atom    2 type  2   force =     0.08760829   -0.08760829    0.02762211

     Total force =     0.179518     Total SCF correction =     0.000003

     Computing stress (Cartesian axis) and pressure

          total   stress  (Ry/bohr**3)                   (kbar)     P=       30.68
   0.00017539  -0.00016387   0.00037877           25.80      -24.11       55.72
  -0.00016387   0.00017539  -0.00037877          -24.11       25.80      -55.72
   0.00037877  -0.00037877   0.00027490           55.72      -55.72       40.44

     Writing all to output data dir ./c_k3.save/

     General routines

     Parallel routines

   This run was terminated on:  18:27:44  19Feb2022

   JOB DONE.