     Program PWSCF v.6.4.1 starts on 23Apr2022 at 14:23:49

     Waiting for input...
     Reading input from standard input

     Current dimensions of program PWSCF are:
     Max number of different atomic species (ntypx) = 10
     Max number of k-points (npk) =  40000
     Max angular momentum in pseudopotentials (lmaxx) =  3

     Subspace diagonalization in iterative solution of the eigenvalue problem:
     a serial algorithm will be used

     bravais-lattice index     =            5
     lattice parameter (alat)  =      12.0000  a.u.
     unit-cell volume          =    1221.8805 (a.u.)^3
     number of atoms/cell      =           10
     number of atomic types    =            3
     number of electrons       =        64.00
     number of Kohn-Sham states=           32
     kinetic-energy cutoff     =      50.0000  Ry
     charge density cutoff     =     200.0000  Ry
     convergence threshold     =      1.0E-08
     mixing beta               =       0.7000
     number of iterations used =            8  plain     mixing
     Exchange-correlation      = SLA  PW   PBE  PBE ( 1  4  3  4 0 0)
     nstep                     =           50

     celldm(1)=  12.000000  celldm(2)=   0.000000  celldm(3)=   0.000000
     celldm(4)=   0.500000  celldm(5)=   0.000000  celldm(6)=   0.000000

     crystal axes: (cart. coord. in units of alat)
               a(1) = (   0.500000  -0.288675   0.816497 )
               a(2) = (   0.000000   0.577350   0.816497 )
               a(3) = (  -0.500000  -0.288675   0.816497 )

     reciprocal axes: (cart. coord. in units 2 pi/alat)
               b(1) = (  1.000000 -0.577350  0.408248 )
               b(2) = (  0.000000  1.154701  0.408248 )
               b(3) = ( -1.000000 -0.577350  0.408248 )

     PseudoPot. # 1 for Ca read from file:
     ./Ca_PBE.UPF
     MD5 check sum: 403a4c14b9e4d4dfdc3024c9a3812218
     Pseudo is Ultrasoft + core correction, Zval = 10.0
     Generated by new atomic code, or converted to UPF format
     Using radial grid of  845 points,  6 beta functions with:
                l(1) =   0
                l(2) =   0
                l(3) =   1
                l(4) =   1
                l(5) =   2
                l(6) =   2
     Q(r) pseudized with  8 coefficients,  rinner =    1.500   1.500   1.500
                                                       1.500   1.500

     PseudoPot. # 2 for C  read from file:
     ./C_PBE.UPF
     MD5 check sum: d1aef80898a10debaa0f26306b886e00
     Pseudo is Ultrasoft + core correction, Zval =  4.0
     Generated by new atomic code, or converted to UPF format
     Using radial grid of  721 points,  4 beta functions with:
                l(1) =   0
                l(2) =   0
                l(3) =   1
                l(4) =   1
     Q(r) pseudized with  8 coefficients,  rinner =    1.100   1.100   1.100

     PseudoPot. # 3 for O  read from file:
     ./O_PBE.UPF
     MD5 check sum: 734c27235a0248c51dbae37a1fbe46ec
     Pseudo is Ultrasoft + core correction, Zval =  6.0
     Generated by new atomic code, or converted to UPF format
     Using radial grid of  737 points,  5 beta functions with:
                l(1) =   0
                l(2) =   0
                l(3) =   1
                l(4) =   1
                l(5) =   2
     Q(r) pseudized with  8 coefficients,  rinner =    0.900   0.900   0.900
                                                       0.900   0.900

     atomic species   valence    mass     pseudopotential
        Ca            10.00    40.07800     Ca( 1.00)
        C              4.00    12.01070     C ( 1.00)
        O              6.00    16.00000     O ( 1.00)

     12 Sym. Ops., with inversion, found ( 6 have fractional translation)

   Cartesian axes

     site n.     atom                  positions (alat units)
         1           Ca  tau(   1) = (   0.0000000  -0.0000000   1.2247449  )
         2           Ca  tau(   2) = (   0.0000000   0.0000000   0.0000000  )
         3           C   tau(   3) = (   0.0000000  -0.0000000   0.6123724  )
         4           C   tau(   4) = (  -0.0000000  -0.0000000   1.8371173  )
         5           O   tau(   5) = (   0.1293055   0.3533865   1.4288690  )
         6           O   tau(   6) = (   0.2413889  -0.2886751   1.4288690  )
         7           O   tau(   7) = (  -0.3706945  -0.0647114   1.4288690  )
         8           O   tau(   8) = (  -0.2413889   0.2886751   1.0206207  )
         9           O   tau(   9) = (   0.3706945   0.0647114   1.0206207  )
        10           O   tau(  10) = (  -0.1293055  -0.3533865   1.0206207  )

     number of k points=    32
                       cart. coord. in units 2pi/alat
        k(    1) = (   0.0000000   0.0000000   0.0000000), wk =   0.0092593
        k(    2) = (  -0.1666667  -0.0962250   0.0680414), wk =   0.0555556
        k(    3) = (  -0.3333333  -0.1924501   0.1360828), wk =   0.0555556
        k(    4) = (   0.5000000   0.2886751  -0.2041241), wk =   0.0277778
        k(    5) = (  -0.1666667   0.0962250   0.1360828), wk =   0.0555556
        k(    6) = (  -0.3333333   0.0000000   0.2041241), wk =   0.1111111
        k(    7) = (   0.5000000   0.4811252  -0.1360828), wk =   0.1111111
        k(    8) = (   0.3333333   0.3849002  -0.0680414), wk =   0.1111111
        k(    9) = (   0.1666667   0.2886751   0.0000000), wk =   0.0555556
        k(   10) = (  -0.3333333   0.1924501   0.2721655), wk =   0.0555556
        k(   11) = (   0.5000000   0.6735753  -0.0680414), wk =   0.1111111
        k(   12) = (   0.3333333   0.5773503   0.0000000), wk =   0.0555556
        k(   13) = (   0.5000000  -0.2886751  -0.4082483), wk =   0.0277778
        k(   14) = (   0.0000000   0.0000000   0.2041241), wk =   0.0185185
        k(   15) = (  -0.1666667  -0.0962250   0.2721655), wk =   0.0555556
        k(   16) = (   0.6666667   0.3849002  -0.0680414), wk =   0.0555556
        k(   17) = (   0.5000000   0.2886751   0.0000000), wk =   0.0555556
        k(   18) = (   0.3333333   0.1924501   0.0680414), wk =   0.0555556
        k(   19) = (  -0.1666667   0.0962250   0.3402069), wk =   0.0555556
        k(   20) = (   0.6666667   0.5773503   0.0000000), wk =   0.1111111
        k(   21) = (   0.5000000   0.4811252   0.0680414), wk =   0.1111111
        k(   22) = (   0.3333333   0.3849002   0.1360828), wk =   0.1111111
        k(   23) = (   0.6666667  -0.3849002  -0.3402069), wk =   0.0555556
        k(   24) = (   0.5000000  -0.4811252  -0.2721655), wk =   0.1111111
        k(   25) = (   0.3333333  -0.5773503  -0.2041241), wk =   0.0555556
        k(   26) = (   0.5000000  -0.2886751  -0.2041241), wk =   0.0555556
        k(   27) = (   0.0000000   0.0000000   0.4082483), wk =   0.0185185
        k(   28) = (   0.8333333   0.4811252   0.0680414), wk =   0.0555556
        k(   29) = (   0.6666667   0.3849002   0.1360828), wk =   0.0555556
        k(   30) = (   0.8333333  -0.4811252  -0.2721655), wk =   0.0555556
        k(   31) = (   0.6666667  -0.5773503  -0.2041241), wk =   0.0555556
        k(   32) = (   0.0000000   0.0000000  -0.6123724), wk =   0.0092593

     Check: negative core charge=   -0.000002

     Initial potential from superposition of free atoms

     starting charge   63.98899, renormalised to   64.00000
     Starting wfcs are   52 randomized atomic wfcs

     Self-consistent Calculation

     iteration #  1     ecut=    50.00 Ry     beta= 0.70
     CG style diagonalization
     ethr =  1.00E-02,  avg # of iterations =  2.1

     total energy              =    -365.08384116 Ry
     Harris-Foulkes estimate   =    -366.86964600 Ry
     estimated scf accuracy    <       2.42134289 Ry

[...]

     End of self-consistent calculation

          k = 0.0000 0.0000 0.0000 (  7391 PWs)   bands (ev):

   -38.5637 -38.5618 -19.5579 -19.5337 -19.4773 -19.4773 -19.4513 -19.4513
   -15.8677 -15.5781 -14.6254 -14.6254 -14.4755 -14.4755  -6.3270  -6.1708
    -2.5497  -2.5497  -2.4662  -2.4662  -1.6790  -0.5460   0.2868   0.2868
     0.4490   0.4490   0.5458   0.5458   0.8262   1.4031   1.4852   1.4852

          k =-0.1667-0.0962 0.0680 (  7333 PWs)   bands (ev):

[...]

     highest occupied level (ev):     1.4852

!    total energy              =    -366.40793954 Ry
     Harris-Foulkes estimate   =    -366.40793954 Ry
     estimated scf accuracy    <          6.4E-09 Ry

     The total energy is the sum of the following terms:

     one-electron contribution =    -166.42447432 Ry
     hartree contribution      =     105.51375731 Ry
     xc contribution           =     -72.64378720 Ry
     ewald contribution        =    -232.85343533 Ry

     convergence has been achieved in  10 iterations

     Forces acting on atoms (cartesian axes, Ry/au):

     atom    1 type  1   force =     0.00000000   -0.00000000   -0.00000000
     atom    2 type  1   force =     0.00000000    0.00000000    0.00000000
     atom    3 type  2   force =    -0.00000000    0.00000000    0.00000000
     atom    4 type  2   force =     0.00000000    0.00000000    0.00000000
     atom    5 type  3   force =    -0.12156627    0.21055895    0.00000000
     atom    6 type  3   force =     0.24313253   -0.00000000   -0.00000000
     atom    7 type  3   force =    -0.12156627   -0.21055895   -0.00000000
     atom    8 type  3   force =    -0.24313253    0.00000000    0.00000000
     atom    9 type  3   force =     0.12156627    0.21055895    0.00000000
     atom   10 type  3   force =     0.12156627   -0.21055895   -0.00000000

     Total force =     0.595551     Total SCF correction =     0.000030

     Computing stress (Cartesian axis) and pressure

          total   stress  (Ry/bohr**3)                   (kbar)     P= -287.55
  -0.00283238   0.00000000  -0.00000000       -416.66      0.00     -0.00
  -0.00000000  -0.00283238  -0.00000000         -0.00   -416.66     -0.00
  -0.00000000  -0.00000000  -0.00019932         -0.00     -0.00    -29.32

     number of scf cycles    =  14
     number of bfgs steps    =  11

     enthalpy old            =    -367.4293880388 Ry
     enthalpy new            =    -366.4071089227 Ry

     CASE: enthalpy_new > enthalpy_old

     new trust radius        =       0.0012360046 bohr
     new conv_thr            =       0.0000000100 Ry

     new unit-cell volume =    854.06660 a.u.^3 (   126.55961 Ang^3 )
     density =      2.62645 g/cm^3

CELL_PARAMETERS (alat= 12.00000000)
   0.397134598  -0.229285767   0.904652797
  -0.000000000   0.458571534   0.904652797
  -0.397134598  -0.229285767   0.904652797

ATOMIC_POSITIONS (crystal)
Ca       0.500000000   0.500000000   0.500000000
Ca      -0.000000000   0.000000000  -0.000000000
C        0.250000000   0.250000000   0.250000000
C        0.750000000   0.750000000   0.750000000
O        0.507154776   0.992845224   0.250000000
O        0.992845224   0.250000000   0.507154776
O        0.250000000   0.507154776   0.992845224
O        0.007154776   0.750000000   0.492845224
O        0.750000000   0.492845224   0.007154776
O        0.492845224   0.007154776   0.750000000

     Writing output data file CCO_k.save/
     NEW-OLD atomic charge density approx. for the potential

[...]

     negative rho (up, down):  7.780E-02 0.000E+00
     extrapolated charge   36.44238, renormalised to   64.00000

[...]

     iteration #  1     ecut=    50.00 Ry     beta= 0.70
     CG style diagonalization
     c_bands:  5 eigenvalues not converged
     c_bands:  2 eigenvalues not converged
     c_bands:  2 eigenvalues not converged
     ethr =  1.00E-06,  avg # of iterations = 19.7

     negative rho (up, down):  2.873E-02 0.000E+00

[...]

     Total force =     0.000877     Total SCF correction =     0.000319
     SCF correction compared to forces is large: reduce conv_thr to get better values

[...]

     CASE: enthalpy_new < enthalpy_old

[...]

     Check: negative core charge=   -0.000003
     extrapolated charge   64.00266, renormalised to   64.00000

[...]

     Threshold (ethr) on eigenvalues was too large:
     Diagonalizing with lowered threshold

     CG style diagonalization
     c_bands:  1 eigenvalues not converged
     c_bands:  1 eigenvalues not converged
     c_bands:  1 eigenvalues not converged
     c_bands:  1 eigenvalues not converged
     c_bands:  1 eigenvalues not converged
     c_bands:  1 eigenvalues not converged
     c_bands:  1 eigenvalues not converged
     c_bands:  1 eigenvalues not converged
     ethr =  6.67E-09,  avg # of iterations =  6.0

[...]

     BFGS Geometry Optimization

[...]

     enthalpy new            =    -367.4317724173 Ry

[...]

     CG style diagonalization
     ethr =  7.34E-08,  avg # of iterations =  2.8

[...]

     enthalpy new            =    -367.4317728365 Ry

[...]

     CG style diagonalization
     ethr =  1.81E-08,  avg # of iterations =  3.4

[...]

     number of scf cycles    =   2
     number of bfgs steps    =   1

     enthalpy old            =    -367.4303628656 Ry
     enthalpy new            =    -367.4317730455 Ry

     CASE: enthalpy_new < enthalpy_old

     new trust radius        =       0.0007134887 bohr
     new conv_thr            =            1.0E-10 Ry

     new unit-cell volume =    854.37237 a.u.^3 (   126.60492 Ang^3 )
     density =      2.62551 g/cm^3

[...]

ATOMIC_POSITIONS (crystal)
Ca       0.500000000   0.500000000   0.500000000
Ca      -0.000000000   0.000000000  -0.000000000
C        0.250000000   0.250000000   0.250000000
C        0.750000000   0.750000000   0.750000000
O        0.507003424   0.992996576   0.250000000
O        0.992996576   0.250000000   0.507003424
O        0.250000000   0.507003424   0.992996576
O        0.007003424   0.750000000   0.492996576
O        0.750000000   0.492996576   0.007003424
O        0.492996576   0.007003424   0.750000000

     Writing output data file CCO_k.save/
     NEW-OLD atomic charge density approx. for the potential

     Check: negative core charge=   -0.000003
     extrapolated charge   64.00059, renormalised to   64.00000

[...]

     Threshold (ethr) on eigenvalues was too large:
     Diagonalizing with lowered threshold

     CG style diagonalization
     c_bands:  1 eigenvalues not converged
     c_bands:  1 eigenvalues not converged
     c_bands:  1 eigenvalues not converged
     ethr =  1.42E-09,  avg # of iterations =  5.7

[...]

     BFGS Geometry Optimization

     bfgs converged in   1 scf cycles and   0 bfgs steps
     (criteria: energy <  1.0E-04 Ry, force <  1.0E-03Ry/Bohr, cell <  5.0E-01kbar)

     End of BFGS Geometry Optimization

     Final enthalpy =    -367.4317736775 Ry
Begin final coordinates
     new unit-cell volume =    854.37237 a.u.^3 (   126.60492 Ang^3 )
     density =      2.62551 g/cm^3

CELL_PARAMETERS (alat= 12.00000000)
   0.397375038  -0.229424585   0.903881852
  -0.000000000   0.458849171   0.903881852
  -0.397375038  -0.229424585   0.903881852

ATOMIC_POSITIONS (crystal)
Ca       0.500000000   0.500000000   0.500000000
Ca      -0.000000000   0.000000000  -0.000000000
C        0.250000000   0.250000000   0.250000000
C        0.750000000   0.750000000   0.750000000
O        0.507003424   0.992996576   0.250000000
O        0.992996576   0.250000000   0.507003424
O        0.250000000   0.507003424   0.992996576
O        0.007003424   0.750000000   0.492996576
O        0.750000000   0.492996576   0.007003424
O        0.492996576   0.007003424   0.750000000
End final coordinates

     Writing output data file CCO_k.save/

     A final scf calculation at the relaxed structure.
     The G-vectors are recalculated for the final unit cell
     Results may differ from those at the preceding step.

     bravais-lattice index     =            5
     lattice parameter (alat)  =      12.0000  a.u.
     unit-cell volume          =     854.3724 (a.u.)^3
     number of atoms/cell      =           10
     number of atomic types    =            3
     number of electrons       =        64.00
     number of Kohn-Sham states=           32
     kinetic-energy cutoff     =      50.0000  Ry
     charge density cutoff     =     200.0000  Ry
     convergence threshold     =      1.0E-10
     mixing beta               =       0.7000
     number of iterations used =            8  plain     mixing
     Exchange-correlation      = SLA  PW   PBE  PBE ( 1  4  3  4 0 0)

     celldm(1)=  12.000000  celldm(2)=   0.000000  celldm(3)=   0.000000
     celldm(4)=   0.500000  celldm(5)=   0.000000  celldm(6)=   0.000000

     crystal axes: (cart. coord. in units of alat)
               a(1) = (   0.397375  -0.229425   0.903882 )
               a(2) = (  -0.000000   0.458849   0.903882 )
               a(3) = (  -0.397375  -0.229425   0.903882 )

     reciprocal axes: (cart. coord. in units 2 pi/alat)
               b(1) = (  1.258257 -0.726455  0.368780 )
               b(2) = ( -0.000000  1.452910  0.368780 )
               b(3) = ( -1.258257 -0.726455  0.368780 )

     PseudoPot. # 1 for Ca read from file:
     ./Ca_PBE.UPF
     MD5 check sum: 403a4c14b9e4d4dfdc3024c9a3812218
     Pseudo is Ultrasoft + core correction, Zval = 10.0
     Generated by new atomic code, or converted to UPF format
     Using radial grid of  845 points,  6 beta functions with:
                l(1) =   0
                l(2) =   0
                l(3) =   1
                l(4) =   1
                l(5) =   2
                l(6) =   2
     Q(r) pseudized with  8 coefficients,  rinner =    1.500   1.500   1.500
                                                       1.500   1.500

     PseudoPot. # 2 for C  read from file:
     ./C_PBE.UPF
     MD5 check sum: d1aef80898a10debaa0f26306b886e00
     Pseudo is Ultrasoft + core correction, Zval =  4.0
     Generated by new atomic code, or converted to UPF format
     Using radial grid of  721 points,  4 beta functions with:
                l(1) =   0
                l(2) =   0
                l(3) =   1
                l(4) =   1
     Q(r) pseudized with  8 coefficients,  rinner =    1.100   1.100   1.100

     PseudoPot. # 3 for O  read from file:
     ./O_PBE.UPF
     MD5 check sum: 734c27235a0248c51dbae37a1fbe46ec
     Pseudo is Ultrasoft + core correction, Zval =  6.0
     Generated by new atomic code, or converted to UPF format
     Using radial grid of  737 points,  5 beta functions with:
                l(1) =   0
                l(2) =   0
                l(3) =   1
                l(4) =   1
                l(5) =   2
     Q(r) pseudized with  8 coefficients,  rinner =    0.900   0.900   0.900
                                                       0.900   0.900

     atomic species   valence    mass     pseudopotential
        Ca            10.00    40.07800     Ca( 1.00)
        C              4.00    12.01070     C ( 1.00)
        O              6.00    16.00000     O ( 1.00)

     12 Sym. Ops., with inversion, found ( 6 have fractional translation)

   Cartesian axes

     site n.     atom                  positions (alat units)
         1           Ca  tau(   1) = (  -0.0000000  -0.0000000   1.3558228  )
         2           Ca  tau(   2) = (  -0.0000000   0.0000000   0.0000000  )
         3           C   tau(   3) = (  -0.0000000  -0.0000000   0.6779114  )
         4           C   tau(   4) = (  -0.0000000  -0.0000000   2.0337342  )
         5           O   tau(   5) = (   0.1021267   0.2819605   1.5817932  )
         6           O   tau(   6) = (   0.1931215  -0.2294246   1.5817932  )
         7           O   tau(   7) = (  -0.2952483  -0.0525359   1.5817932  )
         8           O   tau(   8) = (  -0.1931215   0.2294246   1.1298523  )
         9           O   tau(   9) = (   0.2952483   0.0525359   1.1298523  )
        10           O   tau(  10) = (  -0.1021267  -0.2819605   1.1298523  )

     number of k points=    32
                       cart. coord. in units 2pi/alat
        k(    1) = (   0.0000000   0.0000000   0.0000000), wk =   0.0092593
        k(    2) = (  -0.2097095  -0.1210759   0.0614633), wk =   0.0555556
        k(    3) = (  -0.4194191  -0.2421517   0.1229266), wk =   0.0555556
        k(    4) = (   0.6291286   0.3632276  -0.1843899), wk =   0.0277778
        k(    5) = (  -0.2097095   0.1210759   0.1229266), wk =   0.0555556
        k(    6) = (  -0.4194191  -0.0000000   0.1843899), wk =   0.1111111
        k(    7) = (   0.6291286   0.6053793  -0.1229266), wk =   0.1111111
        k(    8) = (   0.4194191   0.4843034  -0.0614633), wk =   0.1111111
        k(    9) = (   0.2097095   0.3632276   0.0000000), wk =   0.0555556
        k(   10) = (  -0.4194191   0.2421517   0.2458532), wk =   0.0555556
        k(   11) = (   0.6291286   0.8475310  -0.0614633), wk =   0.1111111
        k(   12) = (   0.4194191   0.7264551   0.0000000), wk =   0.0555556
        k(   13) = (   0.6291286  -0.3632276  -0.3687798), wk =   0.0277778
        k(   14) = (   0.0000000   0.0000000   0.1843899), wk =   0.0185185
        k(   15) = (  -0.2097095  -0.1210759   0.2458532), wk =   0.0555556
        k(   16) = (   0.8388381   0.4843034  -0.0614633), wk =   0.0555556
        k(   17) = (   0.6291286   0.3632276   0.0000000), wk =   0.0555556
        k(   18) = (   0.4194191   0.2421517   0.0614633), wk =   0.0555556
        k(   19) = (  -0.2097095   0.1210759   0.3073165), wk =   0.0555556
        k(   20) = (   0.8388381   0.7264551   0.0000000), wk =   0.1111111
        k(   21) = (   0.6291286   0.6053793   0.0614633), wk =   0.1111111
        k(   22) = (   0.4194191   0.4843034   0.1229266), wk =   0.1111111
        k(   23) = (   0.8388381  -0.4843034  -0.3073165), wk =   0.0555556
        k(   24) = (   0.6291286  -0.6053793  -0.2458532), wk =   0.1111111
        k(   25) = (   0.4194191  -0.7264551  -0.1843899), wk =   0.0555556
        k(   26) = (   0.6291286  -0.3632276  -0.1843899), wk =   0.0555556
        k(   27) = (   0.0000000   0.0000000   0.3687798), wk =   0.0185185
        k(   28) = (   1.0485477   0.6053793   0.0614633), wk =   0.0555556
        k(   29) = (   0.8388381   0.4843034   0.1229266), wk =   0.0555556
        k(   30) = (   1.0485477  -0.6053793  -0.2458532), wk =   0.0555556
        k(   31) = (   0.8388381  -0.7264551  -0.1843899), wk =   0.0555556
        k(   32) = (   0.0000000   0.0000000  -0.5531696), wk =   0.0092593

     Check: negative core charge=   -0.000003

     Initial potential from superposition of free atoms

     starting charge   63.98899, renormalised to   64.00000
     Starting wfcs are   52 randomized atomic wfcs

     Self-consistent Calculation

     iteration #  1     ecut=    50.00 Ry     beta= 0.70
     CG style diagonalization
     c_bands:  5 eigenvalues not converged
     c_bands:  5 eigenvalues not converged
     c_bands:  1 eigenvalues not converged
     c_bands:  5 eigenvalues not converged
     c_bands:  5 eigenvalues not converged
     c_bands:  5 eigenvalues not converged
     c_bands:  3 eigenvalues not converged
     c_bands:  3 eigenvalues not converged
     c_bands:  2 eigenvalues not converged
     c_bands:  4 eigenvalues not converged
     c_bands:  4 eigenvalues not converged
     c_bands:  4 eigenvalues not converged
     c_bands:  4 eigenvalues not converged
     c_bands:  5 eigenvalues not converged
     c_bands:  4 eigenvalues not converged
     c_bands:  5 eigenvalues not converged
     c_bands:  5 eigenvalues not converged
     c_bands:  5 eigenvalues not converged
     c_bands:  4 eigenvalues not converged
     c_bands:  5 eigenvalues not converged
     c_bands:  1 eigenvalues not converged
     c_bands:  4 eigenvalues not converged
     c_bands:  5 eigenvalues not converged
     c_bands:  3 eigenvalues not converged
     ethr =  1.00E-06,  avg # of iterations = 12.7

[...]

     total energy              =    -367.43036678 Ry
     Harris-Foulkes estimate   =    -367.43036678 Ry
     estimated scf accuracy    <          4.1E-10 Ry

     iteration # 12     ecut=    50.00 Ry     beta= 0.70
     CG style diagonalization
     ethr =  6.38E-13,  avg # of iterations =  3.9

     End of self-consistent calculation

[...]

          k =-0.2097 0.1211 0.3073 (  5100 PWs)   bands (ev):

[...]

          k = 0.0000 0.0000-0.5532 (  5076 PWs)   bands (ev):

   -33.6872 -33.6872 -17.0801 -17.0801 -14.9787 -14.9787 -14.9787 -14.9787
   -14.6078 -14.6078 -13.6028 -13.6028 -13.6028 -13.6028  -3.2342  -3.2342
    -1.4039  -1.4039  -1.4039  -1.4039  -1.0064  -1.0064   2.5719   2.5719
     2.5719   2.5719   3.2482   3.2482   3.2482   3.2482   3.9668   3.9668

     highest occupied level (ev):     4.4887

!    total energy              =    -367.43036678 Ry
     Harris-Foulkes estimate   =    -367.43036678 Ry
     estimated scf accuracy    <          3.5E-11 Ry

     The total energy is the sum of the following terms:

     one-electron contribution =    -148.06082178 Ry
     hartree contribution      =     103.41876330 Ry
     xc contribution           =     -75.26840280 Ry
     ewald contribution        =    -247.51990549 Ry

     convergence has been achieved in  12 iterations

     Forces acting on atoms (cartesian axes, Ry/au):

     atom    1 type  1   force =     0.00000000    0.00000000    0.00000000
     atom    2 type  1   force =     0.00000000    0.00000000    0.00000000
     atom    3 type  2   force =     0.00000000    0.00000000    0.00000000
     atom    4 type  2   force =     0.00000000    0.00000000    0.00000000
     atom    5 type  3   force =    -0.00011706    0.00020276    0.00000000
     atom    6 type  3   force =     0.00023413    0.00000000   -0.00000000
     atom    7 type  3   force =    -0.00011706   -0.00020276   -0.00000000
     atom    8 type  3   force =    -0.00023413   -0.00000000    0.00000000
     atom    9 type  3   force =     0.00011706    0.00020276    0.00000000
     atom   10 type  3   force =     0.00011706   -0.00020276   -0.00000000

     Total force =     0.000573     Total SCF correction =     0.000011

     Computing stress (Cartesian axis) and pressure

          total   stress  (Ry/bohr**3)                   (kbar)     P=   -0.90
  -0.00000917   0.00000000  -0.00000000         -1.35      0.00     -0.00
  -0.00000000  -0.00000917  -0.00000000         -0.00     -1.35     -0.00
   0.00000000  -0.00000000  -0.00000007          0.00     -0.00     -0.01

     Writing output data file CCO_k.save/

     General routines

     Parallel routines

   This run was terminated on:  16:38:28  23Apr2022

   JOB DONE.