     Program PWSCF v.6.4.1 starts on 24Apr2022 at  8: 1:38

     R & G space division:  proc/nbgrp/npool/nimage =     120
     Waiting for input...
     Reading input from standard input

     Current dimensions of program PWSCF are:
     Max number of different atomic species (ntypx) = 10
     Max number of k-points (npk) =  40000
     Max angular momentum in pseudopotentials (lmaxx) =  3

     bravais-lattice index     =            5
     lattice parameter (alat)  =      12.1620  a.u.
     unit-cell volume          =     854.7720 (a.u.)^3
     number of atoms/cell      =           10
     number of atomic types    =            3
     number of electrons       =        64.00
     number of Kohn-Sham states=           32
     kinetic-energy cutoff     =      70.0000  Ry
     charge density cutoff     =     280.0000  Ry
     convergence threshold     =      1.0E-05
     mixing beta               =       0.7000
     number of iterations used =            8  plain     mixing
     Exchange-correlation      = SLA  PW   PBE  PBE ( 1  4  3  4 0 0)
     nstep                     =           50

     celldm(1)=  12.162000  celldm(2)=   0.000000  celldm(3)=   0.000000
     celldm(4)=   0.692300  celldm(5)=   0.000000  celldm(6)=   0.000000

     crystal axes: (cart. coord. in units of alat)
               a(1) = (   0.392237  -0.226458   0.891553 )
               a(2) = (   0.000000   0.452916   0.891553 )
               a(3) = (  -0.392237  -0.226458   0.891553 )

     reciprocal axes: (cart. coord. in units 2 pi/alat)
               b(1) = (  1.274739 -0.735971  0.373879 )
               b(2) = (  0.000000  1.471942  0.373879 )
               b(3) = ( -1.274739 -0.735971  0.373879 )

     PseudoPot. # 1 for Ca read from file:
     ./Ca_PBE.UPF
     MD5 check sum: 403a4c14b9e4d4dfdc3024c9a3812218
     Pseudo is Ultrasoft + core correction, Zval = 10.0
     Generated by new atomic code, or converted to UPF format
     Using radial grid of  845 points,  6 beta functions with:
                l(1) =   0
                l(2) =   0
                l(3) =   1
                l(4) =   1
                l(5) =   2
                l(6) =   2
     Q(r) pseudized with  8 coefficients,  rinner =    1.500   1.500   1.500
                                                       1.500   1.500

     PseudoPot. # 2 for C  read from file:
     ./C_PBE.UPF
     MD5 check sum: d1aef80898a10debaa0f26306b886e00
     Pseudo is Ultrasoft + core correction, Zval =  4.0
     Generated by new atomic code, or converted to UPF format
     Using radial grid of  721 points,  4 beta functions with:
                l(1) =   0
                l(2) =   0
                l(3) =   1
                l(4) =   1
     Q(r) pseudized with  8 coefficients,  rinner =    1.100   1.100   1.100

     PseudoPot. # 3 for O  read from file:
     ./O_PBE.UPF
     MD5 check sum: 734c27235a0248c51dbae37a1fbe46ec
     Pseudo is Ultrasoft + core correction, Zval =  6.0
     Generated by new atomic code, or converted to UPF format
     Using radial grid of  737 points,  5 beta functions with:
                l(1) =   0
                l(2) =   0
                l(3) =   1
                l(4) =   1
                l(5) =   2
     Q(r) pseudized with  8 coefficients,  rinner =    0.900   0.900   0.900
                                                       0.900   0.900

     atomic species   valence    mass     pseudopotential
        Ca            10.00    40.07800     Ca( 1.00)
        C              4.00    12.01070     C ( 1.00)
        O              6.00    16.00000     O ( 1.00)

     12 Sym. Ops., with inversion, found ( 6 have fractional translation)

   Cartesian axes

     site n.     atom                  positions (alat units)
         1           Ca  tau(   1) = (   0.0000000  -0.0000000   1.3373294  )
         2           Ca  tau(   2) = (   0.0000000   0.0000000   0.0000000  )
         3           C   tau(   3) = (   0.0000000  -0.0000000   0.6686647  )
         4           C   tau(   4) = (   0.0000000  -0.0000000   2.0059941  )
         5           O   tau(   5) = (   0.1007658   0.2783849   1.5602177  )
         6           O   tau(   6) = (   0.1907055  -0.2264582   1.5602177  )
         7           O   tau(   7) = (  -0.2914713  -0.0519267   1.5602177  )
         8           O   tau(   8) = (  -0.1907055   0.2264582   1.1144412  )
         9           O   tau(   9) = (   0.2914713   0.0519267   1.1144412  )
        10           O   tau(  10) = (  -0.1007658  -0.2783849   1.1144412  )

     number of k points=    85
                       cart. coord. in units 2pi/alat
        k(    1) = (   0.0000000   0.0000000   0.0000000), wk =   0.0027435
        k(    2) = (  -0.1416377  -0.0817745   0.0415422), wk =   0.0164609
        k(    3) = (  -0.2832753  -0.1635491   0.0830843), wk =   0.0164609
        k(    4) = (  -0.4249130  -0.2453236   0.1246265), wk =   0.0164609
        k(    5) = (  -0.5665506  -0.3270982   0.1661686), wk =   0.0164609
        k(    6) = (  -0.1416377   0.0817745   0.0830843), wk =   0.0164609
        k(    7) = (  -0.2832753   0.0000000   0.1246265), wk =   0.0329218
        k(    8) = (  -0.4249130  -0.0817745   0.1661686), wk =   0.0329218
        k(    9) = (  -0.5665506  -0.1635491   0.2077108), wk =   0.0329218
        k(   10) = (   0.5665506   0.4906472  -0.1246265), wk =   0.0329218
        k(   11) = (   0.4249130   0.4088727  -0.0830843), wk =   0.0329218
        k(   12) = (   0.2832753   0.3270982  -0.0415422), wk =   0.0329218
        k(   13) = (   0.1416377   0.2453236   0.0000000), wk =   0.0164609
        k(   14) = (  -0.2832753   0.1635491   0.1661686), wk =   0.0164609
        k(   15) = (  -0.4249130   0.0817745   0.2077108), wk =   0.0329218
        k(   16) = (  -0.5665506   0.0000000   0.2492530), wk =   0.0329218
        k(   17) = (   0.5665506   0.6541963  -0.0830843), wk =   0.0329218
        k(   18) = (   0.4249130   0.5724218  -0.0415422), wk =   0.0329218
        k(   19) = (   0.2832753   0.4906472   0.0000000), wk =   0.0164609
        k(   20) = (  -0.4249130   0.2453236   0.2492530), wk =   0.0164609
        k(   21) = (  -0.5665506   0.1635491   0.2907951), wk =   0.0329218
        k(   22) = (   0.5665506   0.8177454  -0.0415422), wk =   0.0329218
        k(   23) = (   0.4249130   0.7359709   0.0000000), wk =   0.0164609
        k(   24) = (  -0.5665506   0.3270982   0.3323373), wk =   0.0164609
        k(   25) = (   0.5665506   0.9812945   0.0000000), wk =   0.0164609
        k(   26) = (  -0.0000000   0.0000000   0.1246265), wk =   0.0054870
        k(   27) = (  -0.1416377  -0.0817745   0.1661686), wk =   0.0164609
        k(   28) = (  -0.2832753  -0.1635491   0.2077108), wk =   0.0164609
        k(   29) = (  -0.4249130  -0.2453236   0.2492530), wk =   0.0164609
        k(   30) = (   0.7081883   0.4088727  -0.0830843), wk =   0.0164609
        k(   31) = (   0.5665506   0.3270982  -0.0415422), wk =   0.0164609
        k(   32) = (   0.4249130   0.2453236   0.0000000), wk =   0.0164609
        k(   33) = (   0.2832753   0.1635491   0.0415422), wk =   0.0164609
        k(   34) = (  -0.1416377   0.0817745   0.2077108), wk =   0.0164609
        k(   35) = (  -0.2832753   0.0000000   0.2492530), wk =   0.0329218
        k(   36) = (  -0.4249130  -0.0817745   0.2907951), wk =   0.0329218
        k(   37) = (   0.7081883   0.5724218  -0.0415422), wk =   0.0329218
        k(   38) = (   0.5665506   0.4906472   0.0000000), wk =   0.0329218
        k(   39) = (   0.4249130   0.4088727   0.0415422), wk =   0.0329218
        k(   40) = (   0.2832753   0.3270982   0.0830843), wk =   0.0329218
        k(   41) = (  -0.2832753   0.1635491   0.2907951), wk =   0.0164609
        k(   42) = (  -0.4249130   0.0817745   0.3323373), wk =   0.0329218
        k(   43) = (   0.7081883   0.7359709   0.0000000), wk =   0.0329218
        k(   44) = (   0.5665506   0.6541963   0.0415422), wk =   0.0329218
        k(   45) = (   0.4249130   0.5724218   0.0830843), wk =   0.0329218
        k(   46) = (   0.2832753   0.4906472   0.1246265), wk =   0.0329218
        k(   47) = (  -0.4249130   0.2453236   0.3738795), wk =   0.0164609
        k(   48) = (   0.7081883   0.8995200   0.0415422), wk =   0.0329218
        k(   49) = (   0.5665506   0.8177454   0.0830843), wk =   0.0329218
        k(   50) = (   0.4249130   0.7359709   0.1246265), wk =   0.0329218
        k(   51) = (   0.2832753   0.6541963   0.1661686), wk =   0.0329218
        k(   52) = (   0.7081883  -0.4088727  -0.2907951), wk =   0.0164609
        k(   53) = (   0.5665506  -0.4906472  -0.2492530), wk =   0.0329218
        k(   54) = (   0.4249130  -0.5724218  -0.2077108), wk =   0.0329218
        k(   55) = (   0.5665506  -0.3270982  -0.2077108), wk =   0.0164609
        k(   56) = (   0.4249130  -0.4088727  -0.1661686), wk =   0.0329218
        k(   57) = (   0.4249130  -0.2453236  -0.1246265), wk =   0.0164609
        k(   58) = (  -0.0000000   0.0000000   0.2492530), wk =   0.0054870
        k(   59) = (  -0.1416377  -0.0817745   0.2907951), wk =   0.0164609
        k(   60) = (  -0.2832753  -0.1635491   0.3323373), wk =   0.0164609
[...]
        k(   71) = (   0.7081883   0.7359709   0.1246265), wk =   0.0329218
        k(   72) = (   0.5665506   0.6541963   0.1661686), wk =   0.0329218
        k(   73) = (   0.8498260  -0.4906472  -0.2492530), wk =   0.0164609
        k(   74) = (   0.7081883  -0.5724218  -0.2077108), wk =   0.0329218
        k(   75) = (   0.7081883  -0.4088727  -0.1661686), wk =   0.0164609
        k(   76) = (   0.0000000   0.0000000   0.3738795), wk =   0.0054870
        k(   77) = (  -0.1416377  -0.0817745   0.4154216), wk =   0.0164609
        k(   78) = (   0.9914636   0.5724218   0.0830843), wk =   0.0164609
        k(   79) = (   0.8498260   0.4906472   0.1246265), wk =   0.0164609
        k(   80) = (  -0.1416377   0.0817745   0.4569638), wk =   0.0164609
        k(   81) = (   0.9914636   0.7359709   0.1246265), wk =   0.0329218
        k(   82) = (   0.8498260   0.6541963   0.1661686), wk =   0.0329218
        k(   83) = (   0.9914636  -0.5724218  -0.2077108), wk =   0.0164609
        k(   84) = (  -0.0000000   0.0000000   0.4985059), wk =   0.0054870
        k(   85) = (   1.1331013   0.6541963   0.1661686), wk =   0.0164609

     Check: negative core charge=   -0.000003

     Initial potential from superposition of free atoms

     starting charge   63.98899, renormalised to   64.00000
     Starting wfcs are   52 randomized atomic wfcs

     Self-consistent Calculation

     iteration #  1     ecut=    70.00 Ry     beta= 0.70
     CG style diagonalization
     ethr =  1.00E-02,  avg # of iterations =  2.7

     total energy              =    -366.67175787 Ry
     Harris-Foulkes estimate   =    -367.89532768 Ry
     estimated scf accuracy    <       1.75438222 Ry

[...]

     End of self-consistent calculation

          k = 0.0000 0.0000 0.0000 (  8387 PWs)   bands (ev):

   -33.6974 -33.6848 -17.0812 -17.0716 -15.1280 -15.1280 -14.7630 -14.7630
   -14.6700 -14.5619 -13.9044 -13.9044 -13.3733 -13.3733  -3.3136  -3.0407
    -1.6909  -1.5332  -1.5332  -1.2742  -1.2742  -0.4012   2.3556   2.3556
[...]
O        0.006975362   0.750000000   0.493024638
O        0.750000000   0.493024638   0.006975362
O        0.493024638   0.006975362   0.750000000

     Writing output data file CCO_ener.save/
     NEW-OLD atomic charge density approx. for the potential

     Check: negative core charge=   -0.000003
     extrapolated charge   64.00083, renormalised to   64.00000

[...]

     Threshold (ethr) on eigenvalues was too large:
     Diagonalizing with lowered threshold

     CG style diagonalization
     ethr =  4.82E-10,  avg # of iterations =  5.0

[...]

     BFGS Geometry Optimization

     bfgs converged in   1 scf cycles and   0 bfgs steps
     (criteria: energy <  1.0E-04 Ry, force <  1.0E-03Ry/Bohr, cell <  5.0E-01kbar)

     End of BFGS Geometry Optimization

     Final enthalpy =    -367.4335402530 Ry
Begin final coordinates
     new unit-cell volume =    856.08949 a.u.^3 (   126.85937 Ang^3 )
     density =      2.62024 g/cm^3

CELL_PARAMETERS (alat= 12.16200000)
   0.392125144  -0.226393558   0.893437464
   0.000000000   0.452787115   0.893437464
  -0.392125144  -0.226393558   0.893437464

ATOMIC_POSITIONS (crystal)
Ca       0.500000000   0.500000000   0.500000000
Ca       0.000000000  -0.000000000   0.000000000
C        0.250000000   0.250000000   0.250000000
C        0.750000000   0.750000000   0.750000000
O        0.506975362   0.993024638   0.250000000
O        0.993024638   0.250000000   0.506975362
O        0.250000000   0.506975362   0.993024638
O        0.006975362   0.750000000   0.493024638
O        0.750000000   0.493024638   0.006975362
O        0.493024638   0.006975362   0.750000000
End final coordinates

     Writing output data file CCO_ener.save/

     A final scf calculation at the relaxed structure.
     The G-vectors are recalculated for the final unit cell
     Results may differ from those at the preceding step.

     bravais-lattice index     =            5
     lattice parameter (alat)  =      12.1620  a.u.
     unit-cell volume          =     856.0895 (a.u.)^3
     number of atoms/cell      =           10
     number of atomic types    =            3
     number of electrons       =        64.00
     number of Kohn-Sham states=           32
     kinetic-energy cutoff     =      70.0000  Ry
     charge density cutoff     =     280.0000  Ry
     convergence threshold     =      1.0E-07
     mixing beta               =       0.7000
     number of iterations used =            8  plain     mixing
     Exchange-correlation      = SLA  PW   PBE  PBE ( 1  4  3  4 0 0)

     celldm(1)=  12.162000  celldm(2)=   0.000000  celldm(3)=   0.000000
     celldm(4)=   0.692300  celldm(5)=   0.000000  celldm(6)=   0.000000

     crystal axes: (cart. coord. in units of alat)
               a(1) = (   0.392125  -0.226394   0.893437 )
               a(2) = (   0.000000   0.452787   0.893437 )
               a(3) = (  -0.392125  -0.226394   0.893437 )

     reciprocal axes: (cart. coord. in units 2 pi/alat)
               b(1) = (  1.275103 -0.736181  0.373091 )
               b(2) = (  0.000000  1.472362  0.373091 )
               b(3) = ( -1.275103 -0.736181  0.373091 )

     PseudoPot. # 1 for Ca read from file:
     ./Ca_PBE.UPF
     MD5 check sum: 403a4c14b9e4d4dfdc3024c9a3812218
     Pseudo is Ultrasoft + core correction, Zval = 10.0
     Generated by new atomic code, or converted to UPF format
     Using radial grid of  845 points,  6 beta functions with:
                l(1) =   0
                l(2) =   0
                l(3) =   1
                l(4) =   1
                l(5) =   2
                l(6) =   2
     Q(r) pseudized with  8 coefficients,  rinner =    1.500   1.500   1.500
                                                       1.500   1.500

     PseudoPot. # 2 for C  read from file:
     ./C_PBE.UPF
     MD5 check sum: d1aef80898a10debaa0f26306b886e00
     Pseudo is Ultrasoft + core correction, Zval =  4.0
     Generated by new atomic code, or converted to UPF format
     Using radial grid of  721 points,  4 beta functions with:
                l(1) =   0
                l(2) =   0
                l(3) =   1
                l(4) =   1
     Q(r) pseudized with  8 coefficients,  rinner =    1.100   1.100   1.100

     PseudoPot. # 3 for O  read from file:
     ./O_PBE.UPF
     MD5 check sum: 734c27235a0248c51dbae37a1fbe46ec
     Pseudo is Ultrasoft + core correction, Zval =  6.0
     Generated by new atomic code, or converted to UPF format
     Using radial grid of  737 points,  5 beta functions with:
                l(1) =   0
                l(2) =   0
                l(3) =   1
                l(4) =   1
                l(5) =   2
     Q(r) pseudized with  8 coefficients,  rinner =    0.900   0.900   0.900
                                                       0.900   0.900

     atomic species   valence    mass     pseudopotential
        Ca            10.00    40.07800     Ca( 1.00)
        C              4.00    12.01070     C ( 1.00)
        O              6.00    16.00000     O ( 1.00)

     12 Sym. Ops., with inversion, found ( 6 have fractional translation)

   Cartesian axes

     site n.     atom                  positions (alat units)
         1           Ca  tau(   1) = (   0.0000000  -0.0000000   1.3401562  )
         2           Ca  tau(   2) = (   0.0000000  -0.0000000  -0.0000000  )
         3           C   tau(   3) = (   0.0000000  -0.0000000   0.6700781  )
         4           C   tau(   4) = (  -0.0000000  -0.0000000   2.0102343  )
         5           O   tau(   5) = (   0.1007665   0.2782544   1.5635156  )
         6           O   tau(   6) = (   0.1905921  -0.2263936   1.5635156  )
         7           O   tau(   7) = (  -0.2913586  -0.0518609   1.5635156  )
         8           O   tau(   8) = (  -0.1905921   0.2263936   1.1167968  )
         9           O   tau(   9) = (   0.2913586   0.0518609   1.1167968  )
        10           O   tau(  10) = (  -0.1007665  -0.2782544   1.1167968  )

     number of k points=    85
                       cart. coord. in units 2pi/alat
        k(    1) = (   0.0000000   0.0000000   0.0000000), wk =   0.0027435
        k(    2) = (  -0.1416781  -0.0817979   0.0414545), wk =   0.0164609
        k(    3) = (  -0.2833563  -0.1635958   0.0829091), wk =   0.0164609
        k(    4) = (  -0.4250344  -0.2453937   0.1243636), wk =   0.0164609
        k(    5) = (  -0.5667125  -0.3271916   0.1658182), wk =   0.0164609
        k(    6) = (  -0.1416781   0.0817979   0.0829091), wk =   0.0164609
        k(    7) = (  -0.2833563  -0.0000000   0.1243636), wk =   0.0329218
        k(    8) = (  -0.4250344  -0.0817979   0.1658182), wk =   0.0329218
        k(    9) = (  -0.5667125  -0.1635958   0.2072727), wk =   0.0329218
        k(   10) = (   0.5667125   0.4907874  -0.1243636), wk =   0.0329218
        k(   11) = (   0.4250344   0.4089895  -0.0829091), wk =   0.0329218
        k(   12) = (   0.2833563   0.3271916  -0.0414545), wk =   0.0329218
        k(   13) = (   0.1416781   0.2453937   0.0000000), wk =   0.0164609
        k(   14) = (  -0.2833563   0.1635958   0.1658182), wk =   0.0164609
        k(   15) = (  -0.4250344   0.0817979   0.2072727), wk =   0.0329218
        k(   16) = (  -0.5667125  -0.0000000   0.2487272), wk =   0.0329218
        k(   17) = (   0.5667125   0.6543832  -0.0829091), wk =   0.0329218
        k(   18) = (   0.4250344   0.5725853  -0.0414545), wk =   0.0329218
        k(   19) = (   0.2833563   0.4907874   0.0000000), wk =   0.0164609
        k(   20) = (  -0.4250344   0.2453937   0.2487272), wk =   0.0164609
        k(   21) = (  -0.5667125   0.1635958   0.2901818), wk =   0.0329218
        k(   22) = (   0.5667125   0.8179790  -0.0414545), wk =   0.0329218
        k(   23) = (   0.4250344   0.7361811   0.0000000), wk =   0.0164609
        k(   24) = (  -0.5667125   0.3271916   0.3316363), wk =   0.0164609
        k(   25) = (   0.5667125   0.9815748   0.0000000), wk =   0.0164609
        k(   26) = (  -0.0000000   0.0000000   0.1243636), wk =   0.0054870
        k(   27) = (  -0.1416781  -0.0817979   0.1658182), wk =   0.0164609
        k(   28) = (  -0.2833563  -0.1635958   0.2072727), wk =   0.0164609
        k(   29) = (  -0.4250344  -0.2453937   0.2487272), wk =   0.0164609
        k(   30) = (   0.7083906   0.4089895  -0.0829091), wk =   0.0164609
        k(   31) = (   0.5667125   0.3271916  -0.0414545), wk =   0.0164609
        k(   32) = (   0.4250344   0.2453937   0.0000000), wk =   0.0164609
        k(   33) = (   0.2833563   0.1635958   0.0414545), wk =   0.0164609
        k(   34) = (  -0.1416781   0.0817979   0.2072727), wk =   0.0164609
        k(   35) = (  -0.2833563  -0.0000000   0.2487272), wk =   0.0329218
        k(   36) = (  -0.4250344  -0.0817979   0.2901818), wk =   0.0329218
        k(   37) = (   0.7083906   0.5725853  -0.0414545), wk =   0.0329218
        k(   38) = (   0.5667125   0.4907874   0.0000000), wk =   0.0329218
        k(   39) = (   0.4250344   0.4089895   0.0414545), wk =   0.0329218
        k(   40) = (   0.2833563   0.3271916   0.0829091), wk =   0.0329218
        k(   41) = (  -0.2833563   0.1635958   0.2901818), wk =   0.0164609
        k(   42) = (  -0.4250344   0.0817979   0.3316363), wk =   0.0329218
        k(   43) = (   0.7083906   0.7361811   0.0000000), wk =   0.0329218
        k(   44) = (   0.5667125   0.6543832   0.0414545), wk =   0.0329218
        k(   45) = (   0.4250344   0.5725853   0.0829091), wk =   0.0329218
        k(   46) = (   0.2833563   0.4907874   0.1243636), wk =   0.0329218
        k(   47) = (  -0.4250344   0.2453937   0.3730908), wk =   0.0164609
        k(   48) = (   0.7083906   0.8997769   0.0414545), wk =   0.0329218
        k(   49) = (   0.5667125   0.8179790   0.0829091), wk =   0.0329218
        k(   50) = (   0.4250344   0.7361811   0.1243636), wk =   0.0329218
        k(   51) = (   0.2833563   0.6543832   0.1658182), wk =   0.0329218
        k(   52) = (   0.7083906  -0.4089895  -0.2901818), wk =   0.0164609
        k(   53) = (   0.5667125  -0.4907874  -0.2487272), wk =   0.0329218
        k(   54) = (   0.4250344  -0.5725853  -0.2072727), wk =   0.0329218
        k(   55) = (   0.5667125  -0.3271916  -0.2072727), wk =   0.0164609
        k(   56) = (   0.4250344  -0.4089895  -0.1658182), wk =   0.0329218
        k(   57) = (   0.4250344  -0.2453937  -0.1243636), wk =   0.0164609
        k(   58) = (  -0.0000000   0.0000000   0.2487272), wk =   0.0054870
        k(   59) = (  -0.1416781  -0.0817979   0.2901818), wk =   0.0164609
        k(   60) = (  -0.2833563  -0.1635958   0.3316363), wk =   0.0164609
[...]
        k(   71) = (   0.7083906   0.7361811   0.1243636), wk =   0.0329218
        k(   72) = (   0.5667125   0.6543832   0.1658182), wk =   0.0329218
        k(   73) = (   0.8500688  -0.4907874  -0.2487272), wk =   0.0164609
        k(   74) = (   0.7083906  -0.5725853  -0.2072727), wk =   0.0329218
        k(   75) = (   0.7083906  -0.4089895  -0.1658182), wk =   0.0164609
        k(   76) = (  -0.0000000   0.0000000   0.3730908), wk =   0.0054870
        k(   77) = (  -0.1416781  -0.0817979   0.4145454), wk =   0.0164609
        k(   78) = (   0.9917469   0.5725853   0.0829091), wk =   0.0164609
        k(   79) = (   0.8500688   0.4907874   0.1243636), wk =   0.0164609
        k(   80) = (  -0.1416781   0.0817979   0.4559999), wk =   0.0164609
        k(   81) = (   0.9917469   0.7361811   0.1243636), wk =   0.0329218
        k(   82) = (   0.8500688   0.6543832   0.1658182), wk =   0.0329218
        k(   83) = (   0.9917469  -0.5725853  -0.2072727), wk =   0.0164609
        k(   84) = (  -0.0000000   0.0000000   0.4974545), wk =   0.0054870
        k(   85) = (   1.1334250   0.6543832   0.1658182), wk =   0.0164609

     Check: negative core charge=   -0.000003

     Initial potential from superposition of free atoms

     starting charge   63.98899, renormalised to   64.00000
     Starting wfcs are   52 randomized atomic wfcs

     Self-consistent Calculation

     iteration #  1     ecut=    70.00 Ry     beta= 0.70
     CG style diagonalization
     c_bands:  5 eigenvalues not converged
     c_bands:  4 eigenvalues not converged
     c_bands:  3 eigenvalues not converged
     c_bands:  4 eigenvalues not converged
     c_bands:  5 eigenvalues not converged
     c_bands:  5 eigenvalues not converged
     c_bands:  5 eigenvalues not converged
     c_bands:  4 eigenvalues not converged
     c_bands:  4 eigenvalues not converged
     c_bands:  5 eigenvalues not converged
     c_bands:  5 eigenvalues not converged
     c_bands:  4 eigenvalues not converged
     c_bands:  5 eigenvalues not converged
     c_bands:  3 eigenvalues not converged
     c_bands:  4 eigenvalues not converged
     c_bands:  5 eigenvalues not converged
     c_bands:  5 eigenvalues not converged
     c_bands:  2 eigenvalues not converged
     c_bands:  4 eigenvalues not converged
     c_bands:  4 eigenvalues not converged
     c_bands:  3 eigenvalues not converged
     c_bands:  5 eigenvalues not converged
     c_bands:  5 eigenvalues not converged
     c_bands:  4 eigenvalues not converged
     c_bands:  5 eigenvalues not converged
     c_bands:  4 eigenvalues not converged
     c_bands:  4 eigenvalues not converged
     c_bands:  4 eigenvalues not converged
     c_bands:  3 eigenvalues not converged
     c_bands:  3 eigenvalues not converged
     c_bands:  5 eigenvalues not converged
     c_bands:  5 eigenvalues not converged
     c_bands:  2 eigenvalues not converged
     c_bands:  4 eigenvalues not converged
     c_bands:  4 eigenvalues not converged
     c_bands:  5 eigenvalues not converged
     c_bands:  1 eigenvalues not converged
     c_bands:  2 eigenvalues not converged
     c_bands:  3 eigenvalues not converged
     c_bands:  4 eigenvalues not converged
     c_bands:  5 eigenvalues not converged
     c_bands:  2 eigenvalues not converged
     c_bands:  4 eigenvalues not converged
     ethr =  1.00E-06,  avg # of iterations = 14.1

[...]

     total energy              =    -367.43354170 Ry
     Harris-Foulkes estimate   =    -367.43354356 Ry
     estimated scf accuracy    <       0.00000399 Ry

     iteration #  8     ecut=    70.00 Ry     beta= 0.70
     CG style diagonalization
     ethr =  6.23E-09,  avg # of iterations =  3.6

     End of self-consistent calculation

[...]

          k =-0.0000 0.0000 0.4975 (  8471 PWs)   bands (ev):

[...]

          k = 1.1334 0.6544 0.1658 (  8469 PWs)   bands (ev):

   -33.7183 -33.7177 -17.0959 -17.0912 -15.0792 -15.0450 -14.9578 -14.9171
   -14.6602 -14.6439 -13.7069 -13.6560 -13.5868 -13.5403  -3.2321  -3.2100
    -1.4419  -1.4091  -1.4090  -1.3994  -1.0462  -0.9802   2.5063   2.5329
     2.5624   2.5731   3.0855   3.1434   3.2143   3.2555   3.9883   4.0128

     highest occupied level (ev):     4.4608

!    total energy              =    -367.43354237 Ry
     Harris-Foulkes estimate   =    -367.43354243 Ry
     estimated scf accuracy    <       0.00000007 Ry

     The total energy is the sum of the following terms:

     one-electron contribution =    -148.48637529 Ry
     hartree contribution      =     103.58193880 Ry
     xc contribution           =     -75.26488531 Ry
     ewald contribution        =    -247.26422057 Ry

     convergence has been achieved in   8 iterations

     Forces acting on atoms (cartesian axes, Ry/au):

     atom    1 type  1   force =     0.00000000    0.00000000    0.00000000
     atom    2 type  1   force =     0.00000000    0.00000000    0.00000000
     atom    3 type  2   force =    -0.00000000   -0.00000000   -0.00000000
     atom    4 type  2   force =     0.00000000    0.00000000   -0.00000000
     atom    5 type  3   force =    -0.00003889    0.00006737    0.00000000
     atom    6 type  3   force =     0.00007779   -0.00000000    0.00000000
     atom    7 type  3   force =    -0.00003889   -0.00006737   -0.00000000
     atom    8 type  3   force =    -0.00007779   -0.00000000    0.00000000
     atom    9 type  3   force =     0.00003889    0.00006737    0.00000000
     atom   10 type  3   force =     0.00003889   -0.00006737   -0.00000000

     Total force =     0.000191     Total SCF correction =     0.001233
     SCF correction compared to forces is large: reduce conv_thr to get better values

     Computing stress (Cartesian axis) and pressure

          total   stress  (Ry/bohr**3)                   (kbar)     P=   -0.24
  -0.00000280  -0.00000000   0.00000000         -0.41     -0.00      0.00
   0.00000000  -0.00000280  -0.00000000          0.00     -0.41     -0.00
  -0.00000000  -0.00000000   0.00000066         -0.00     -0.00      0.10

     Writing output data file CCO_ener.save/

     General routines

     Parallel routines

   This run was terminated on:   8:47:45  24Apr2022

   JOB DONE.