     Program PWSCF v.7.0 starts on 14Mar2022 at 23:24:27

     Waiting for input...
     Reading input from standard input
Warning: card &CELL ignored
Warning: card  CELL_DYNAMICS = 'BFGS', ignored
Warning: card  PRESS=0.1D0, ignored
Warning: card / ignored
     Message from routine read_cards :
     DEPRECATED: no units specified in ATOMIC_POSITIONS card
     Message from routine read_cards :
     ATOMIC_POSITIONS: units set to alat

     Current dimensions of program PWSCF are:
     Max number of different atomic species (ntypx) = 10
     Max number of k-points (npk) =  40000
     Max angular momentum in pseudopotentials (lmaxx) =  4
     Message from routine setup:
     using ibrav=0 with symmetry is DISCOURAGED, use correct ibrav instead

     Subspace diagonalization in iterative solution of the eigenvalue problem:
     a serial algorithm will be used

     Using Slab Decomposition

     bravais-lattice index     =            0
     lattice parameter (alat)  =       6.6720  a.u.
     unit-cell volume          =      74.2484 (a.u.)^3
     number of atoms/cell      =            2
     number of atomic types    =            1
     number of electrons       =         8.00
     number of Kohn-Sham states=            4
     kinetic-energy cutoff     =      40.0000  Ry
     charge density cutoff     =     160.0000  Ry
     scf convergence threshold =      1.0E-08
     mixing beta               =       0.7000
     number of iterations used =            8  plain     mixing
     energy convergence thresh.=      1.0E-04
     force convergence thresh. =      1.0E-03
     Exchange-correlation= SLA  PZ   NOGX NOGC
                           (   1   1   0   0   0   0   0)
     nstep                     =           50

     celldm(1)=   6.672000  celldm(2)=   0.000000  celldm(3)=   0.000000
     celldm(4)=   0.000000  celldm(5)=   0.000000  celldm(6)=   0.000000

     crystal axes: (cart. coord. in units of alat)
               a(1) = (  -0.498000   0.000000   0.504000 )
               a(2) = (   0.000000   0.498000   0.504000 )
               a(3) = (  -0.498000   0.498000   0.000000 )

     reciprocal axes: (cart. coord. in units 2 pi/alat)
               b(1) = ( -1.004016 -1.004016  0.992063 )
               b(2) = (  1.004016  1.004016  0.992063 )
               b(3) = ( -1.004016  1.004016 -0.992063 )

     PseudoPot. # 1 for C  read from file:
     ./C_LDA.UPF
     MD5 check sum: 407c1fe918d93b14b177d5600f28733c
     Pseudo is Ultrasoft + core correction, Zval =  4.0
     Generated by new atomic code, or converted to UPF format
     Using radial grid of  721 points,  4 beta functions with:
                l(1) =   0
                l(2) =   0
                l(3) =   1
                l(4) =   1
     Q(r) pseudized with  8 coefficients,  rinner =    1.100   1.100   1.100

     atomic species   valence    mass     pseudopotential
        C              4.00    12.01100     C ( 1.00)

      2 Sym. Ops. (no inversion) found

   Cartesian axes

     site n.     atom                  positions (alat units)
         1           C   tau(   1) = (   0.0000000   0.0000000   0.0000000  )
         2           C   tau(   2) = (   0.2500000   0.2500000   0.2500000  )

     number of k points=    68
                       cart. coord. in units 2pi/alat
        k(    1) = (   0.0000000   0.0000000   0.0000000), wk =   0.0092593
        k(    2) = (  -0.1673360   0.1673360  -0.1653439), wk =   0.0370370
        k(    3) = (  -0.3346720   0.3346720  -0.3306878), wk =   0.0370370
        k(    4) = (   0.5020080  -0.5020080   0.4960317), wk =   0.0185185
        k(    5) = (   0.0000000   0.3346720   0.0000000), wk =   0.0370370
        k(    6) = (  -0.1673360   0.5020080  -0.1653439), wk =   0.0370370
        k(    7) = (   0.6693440  -0.3346720   0.6613757), wk =   0.0370370
        k(    8) = (   0.5020080  -0.1673360   0.4960317), wk =   0.0370370
        k(    9) = (   0.3346720  -0.0000000   0.3306878), wk =   0.0370370
        k(   10) = (   0.0000000   0.6693440   0.0000000), wk =   0.0370370
        k(   11) = (   0.8366801  -0.1673360   0.8267196), wk =   0.0370370
        k(   12) = (   0.6693440  -0.0000000   0.6613757), wk =   0.0370370
        k(   13) = (   0.0000000  -1.0040161   0.0000000), wk =   0.0185185
        k(   14) = (   0.0000000   0.0000000   0.3306878), wk =   0.0185185
        k(   15) = (  -0.3346720   0.3346720   0.0000000), wk =   0.0185185
        k(   16) = (   0.5020080  -0.5020080   0.8267196), wk =   0.0370370
        k(   17) = (   0.3346720  -0.3346720   0.6613757), wk =   0.0370370
        k(   18) = (   0.1673360  -0.1673360   0.4960317), wk =   0.0370370
        k(   19) = (   0.6693440  -0.3346720   0.9920635), wk =   0.0370370
        k(   20) = (   0.5020080  -0.1673360   0.8267196), wk =   0.0370370
        k(   21) = (   0.3346720  -0.0000000   0.6613757), wk =   0.0370370
        k(   22) = (  -1.0040161  -0.3346720  -0.6613757), wk =   0.0370370
        k(   23) = (  -0.3346720  -1.0040161   0.0000000), wk =   0.0370370
        k(   24) = (  -0.8366801  -0.1673360  -0.4960317), wk =   0.0185185
        k(   25) = (   0.0000000  -1.0040161   0.3306878), wk =   0.0370370
        k(   26) = (   0.0000000   0.0000000   0.6613757), wk =   0.0185185
        k(   27) = (   0.3346720  -0.3346720   0.9920635), wk =   0.0185185
        k(   28) = (   0.1673360  -0.1673360   0.8267196), wk =   0.0370370
        k(   29) = (  -0.6693440  -1.0040161   0.0000000), wk =   0.0370370
        k(   30) = (   0.0000000   0.0000000  -0.9920635), wk =   0.0092593
        k(   31) = (   0.1673360   0.1673360   0.1653439), wk =   0.0185185
        k(   32) = (  -0.1673360  -0.1673360   0.1653439), wk =   0.0185185
        k(   33) = (   0.3346720   0.3346720   0.3306878), wk =   0.0185185
        k(   34) = (  -0.3346720  -0.3346720   0.3306878), wk =   0.0185185
        k(   35) = (  -0.5020080  -0.5020080  -0.4960317), wk =   0.0092593
        k(   36) = (   0.5020080   0.5020080  -0.4960317), wk =   0.0092593
        k(   37) = (   0.1673360   0.5020080   0.1653439), wk =   0.0370370
        k(   38) = (  -0.1673360  -0.5020080   0.1653439), wk =   0.0370370
        k(   39) = (   0.5020080  -0.1673360   0.1653439), wk =   0.0370370
        k(   40) = (  -0.6693440  -0.3346720  -0.6613757), wk =   0.0370370
        k(   41) = (   0.6693440   0.3346720  -0.6613757), wk =   0.0370370
        k(   42) = (  -0.3346720   0.6693440  -0.6613757), wk =   0.0370370
        k(   43) = (  -0.5020080  -0.1673360  -0.4960317), wk =   0.0370370
        k(   44) = (   0.5020080   0.1673360  -0.4960317), wk =   0.0370370
        k(   45) = (  -0.1673360   0.5020080  -0.4960317), wk =   0.0370370
        k(   46) = (   0.3346720   0.0000000  -0.3306878), wk =   0.0370370
        k(   47) = (  -0.8366801  -0.1673360  -0.8267196), wk =   0.0370370
        k(   48) = (   0.8366801   0.1673360  -0.8267196), wk =   0.0370370
        k(   49) = (  -0.1673360   0.8366801  -0.8267196), wk =   0.0370370
        k(   50) = (   0.6693440   0.0000000  -0.6613757), wk =   0.0370370
        k(   51) = (   0.3346720   0.3346720  -0.0000000), wk =   0.0185185
        k(   52) = (  -0.5020080  -0.5020080  -0.8267196), wk =   0.0185185
        k(   53) = (   0.5020080   0.5020080  -0.8267196), wk =   0.0185185
        k(   54) = (  -0.3346720  -0.3346720  -0.6613757), wk =   0.0185185
        k(   55) = (   0.3346720   0.3346720  -0.6613757), wk =   0.0185185
        k(   56) = (  -0.1673360  -0.1673360  -0.4960317), wk =   0.0185185
        k(   57) = (   0.1673360   0.1673360  -0.4960317), wk =   0.0185185
        k(   58) = (  -0.6693440  -0.3346720  -0.9920635), wk =   0.0370370
        k(   59) = (  -0.5020080  -0.1673360  -0.8267196), wk =   0.0370370
        k(   60) = (   0.5020080   0.1673360  -0.8267196), wk =   0.0370370
        k(   61) = (  -0.1673360   0.5020080  -0.8267196), wk =   0.0370370
        k(   62) = (   0.3346720   0.0000000  -0.6613757), wk =   0.0370370
        k(   63) = (   1.0040161  -0.3346720   0.6613757), wk =   0.0370370
        k(   64) = (   0.8366801  -0.1673360   0.4960317), wk =   0.0370370
        k(   65) = (  -0.1673360  -0.8366801   0.4960317), wk =   0.0185185
        k(   66) = (  -0.3346720  -0.3346720  -0.9920635), wk =   0.0185185
        k(   67) = (  -0.1673360  -0.1673360  -0.8267196), wk =   0.0185185
        k(   68) = (   0.1673360   0.1673360  -0.8267196), wk =   0.0185185

     Initial potential from superposition of free atoms

     starting charge       7.9999, renormalised to       8.0000
     Starting wfcs are    8 randomized atomic wfcs

     Self-consistent Calculation

     iteration #  1     ecut=    40.00 Ry     beta= 0.70
     CG style diagonalization
     ethr =  1.00E-02,  avg # of iterations =  3.0

     total energy              =     -23.03896464 Ry
     estimated scf accuracy    <       0.14165153 Ry

[...]

     End of self-consistent calculation

          k = 0.0000 0.0000 0.0000 (   331 PWs)   bands (ev):

    -8.0716  13.4765  13.6502  13.8234

          k =-0.1673 0.1673-0.1653 (   320 PWs)   bands (ev):

[...]

     highest occupied level (ev):    13.8234

!    total energy              =     -23.05592359 Ry
     estimated scf accuracy    <          9.5E-11 Ry

     The total energy is the sum of the following terms:
     one-electron contribution =       8.28809534 Ry
     hartree contribution      =       1.88804787 Ry
     xc contribution           =      -7.39537439 Ry
     ewald contribution        =     -25.83669241 Ry

     convergence has been achieved in   6 iterations

     Forces acting on atoms (cartesian axes, Ry/au):

     atom    1 type  1   force =     0.00549419    0.00549419   -0.01067835
     atom    2 type  1   force =    -0.00549419   -0.00549419    0.01067835

     Total force =     0.018676     Total SCF correction =     0.000003

     Computing stress (Cartesian axis) and pressure

          total   stress  (Ry/bohr**3)                   (kbar)     P=        4.65
   0.00029372   0.00002865  -0.00001618           43.21        4.21       -2.38
   0.00002865   0.00029372  -0.00001618            4.21       43.21       -2.38
  -0.00001618  -0.00001618  -0.00049265           -2.38       -2.38      -72.47

     BFGS Geometry Optimization
     Energy error            =      0.0E+00 Ry
     Gradient error          =      1.1E-02 Ry/Bohr

     number of scf cycles    =   1
     number of bfgs steps    =   0

     energy             new  =     -23.0559235934 Ry

     new trust radius        =       0.0132060371 bohr
     new conv_thr            =       0.0000000100 Ry

ATOMIC_POSITIONS (alat)
C             0.0008234704        0.0008234704       -0.0016004715
C             0.2491765296        0.2491765296        0.2516004715

     Writing config-only to output data dir ./Diamond.save/
     NEW-OLD atomic charge density approx. for the potential

[...]

     iteration #  1     ecut=    40.00 Ry     beta= 0.70
     CG style diagonalization
     c_bands:  1 eigenvalues not converged
     c_bands:  1 eigenvalues not converged
     c_bands:  1 eigenvalues not converged
     c_bands:  1 eigenvalues not converged
     c_bands:  1 eigenvalues not converged
     ethr =  1.00E-06,  avg # of iterations =  6.5

[...]

     Energy error            =      6.6E-05 Ry
     Gradient error          =      6.3E-03 Ry/Bohr

     number of scf cycles    =   2
     number of bfgs steps    =   1

     energy             old  =     -23.0559235934 Ry
     energy             new  =     -23.0559900473 Ry

     CASE: energy            _new < energy            _old

     new trust radius        =       0.0049743136 bohr
     new conv_thr            =            1.0E-10 Ry

ATOMIC_POSITIONS (alat)
C             0.0005036881        0.0005036881       -0.0010077453
C             0.2494963119        0.2494963119        0.2510077453

     Writing config-only to output data dir ./Diamond.save/
     NEW-OLD atomic charge density approx. for the potential

     Self-consistent Calculation

     iteration #  1     ecut=    40.00 Ry     beta= 0.70
     CG style diagonalization
     c_bands:  1 eigenvalues not converged
     ethr =  1.00E-06,  avg # of iterations =  5.0

     Threshold (ethr) on eigenvalues was too large:
     Diagonalizing with lowered threshold

     CG style diagonalization
     ethr =  6.17E-08,  avg # of iterations =  3.1

[...]

     total energy              =     -23.05603008 Ry
     estimated scf accuracy    <          4.4E-09 Ry

     iteration #  4     ecut=    40.00 Ry     beta= 0.70
     CG style diagonalization
     ethr =  5.46E-11,  avg # of iterations =  3.8

     End of self-consistent calculation

[...]

          k =-0.1673-0.1673-0.8267 (   320 PWs)   bands (ev):

[...]

          k = 0.1673 0.1673-0.8267 (   320 PWs)   bands (ev):

    -1.4077   3.3646   5.7744   7.9707

     highest occupied level (ev):    13.7127

!    total energy              =     -23.05603008 Ry
     estimated scf accuracy    <          4.5E-11 Ry

     The total energy is the sum of the following terms:
     one-electron contribution =       8.28828504 Ry
     hartree contribution      =       1.88798384 Ry
     xc contribution           =      -7.39535845 Ry
     ewald contribution        =     -25.83694051 Ry

     convergence has been achieved in   4 iterations

     Forces acting on atoms (cartesian axes, Ry/au):

     atom    1 type  1   force =    -0.00004114   -0.00004114    0.00008468
     atom    2 type  1   force =     0.00004114    0.00004114   -0.00008468

     Total force =     0.000145     Total SCF correction =     0.000007

     Computing stress (Cartesian axis) and pressure

          total   stress  (Ry/bohr**3)                   (kbar)     P=        4.39
   0.00029176  -0.00000032   0.00000017           42.92       -0.05        0.03
  -0.00000032   0.00029176   0.00000017           -0.05       42.92        0.03
   0.00000017   0.00000017  -0.00049402            0.03        0.03      -72.67

     Energy error            =      4.0E-05 Ry
     Gradient error          =      8.5E-05 Ry/Bohr

     bfgs converged in   3 scf cycles and   2 bfgs steps
     (criteria: energy <  1.0E-04 Ry, force <  1.0E-03 Ry/Bohr)

     End of BFGS Geometry Optimization

     Final energy             =     -23.0560300830 Ry

     File ./Diamond.bfgs deleted, as requested
Begin final coordinates

ATOMIC_POSITIONS (alat)
C             0.0005036881        0.0005036881       -0.0010077453
C             0.2494963119        0.2494963119        0.2510077453
End final coordinates

     Writing all to output data dir ./Diamond.save/

     General routines

     Parallel routines

   This run was terminated on:  23:24:50  14Mar2022

   JOB DONE.