     Program PWSCF v.7.0 starts on 14Mar2022 at 19: 5:39

     Waiting for input...
     Reading input from standard input
Warning: card &CELL ignored
Warning: card  CELL_DYNAMICS = 'BFGS', ignored
Warning: card  PRESS=0.1D0, ignored
Warning: card / ignored
     Message from routine read_cards :
     DEPRECATED: no units specified in ATOMIC_POSITIONS card
     Message from routine read_cards :
     ATOMIC_POSITIONS: units set to alat

     Current dimensions of program PWSCF are:
     Max number of different atomic species (ntypx) = 10
     Max number of k-points (npk) =  40000
     Max angular momentum in pseudopotentials (lmaxx) =  4
     Message from routine setup:
     using ibrav=0 with symmetry is DISCOURAGED, use correct ibrav instead

     Subspace diagonalization in iterative solution of the eigenvalue problem:
     a serial algorithm will be used

     Using Slab Decomposition

     bravais-lattice index     =            0
     lattice parameter (alat)  =       6.6780  a.u.
     unit-cell volume          =      74.9001 (a.u.)^3
     number of atoms/cell      =            2
     number of atomic types    =            1
     number of electrons       =         8.00
     number of Kohn-Sham states=            4
     kinetic-energy cutoff     =      40.0000  Ry
     charge density cutoff     =     160.0000  Ry
     scf convergence threshold =      1.0E-08
     mixing beta               =       0.7000
     number of iterations used =            8  plain     mixing
     energy convergence thresh.=      1.0E-04
     force convergence thresh. =      1.0E-03
     Exchange-correlation= SLA  PZ   NOGX NOGC
                           (   1   1   0   0   0   0   0)
     nstep                     =           50

     celldm(1)=   6.678000  celldm(2)=   0.000000  celldm(3)=   0.000000
     celldm(4)=   0.000000  celldm(5)=   0.000000  celldm(6)=   0.000000

     crystal axes: (cart. coord. in units of alat)
               a(1) = (  -0.501000   0.000000   0.501000 )
               a(2) = (   0.000000   0.501000   0.501000 )
               a(3) = (  -0.501000   0.501000   0.000000 )

     reciprocal axes: (cart. coord. in units 2 pi/alat)
               b(1) = ( -0.998004 -0.998004  0.998004 )
               b(2) = (  0.998004  0.998004  0.998004 )
               b(3) = ( -0.998004  0.998004 -0.998004 )

     PseudoPot. # 1 for C  read from file:
     ./C_LDA.UPF
     MD5 check sum: 407c1fe918d93b14b177d5600f28733c
     Pseudo is Ultrasoft + core correction, Zval =  4.0
     Generated by new atomic code, or converted to UPF format
     Using radial grid of  721 points,  4 beta functions with:
                l(1) =   0
                l(2) =   0
                l(3) =   1
                l(4) =   1
     Q(r) pseudized with  8 coefficients,  rinner =    1.100   1.100   1.100

     atomic species   valence    mass     pseudopotential
        C              4.00    12.01100     C ( 1.00)

      6 Sym. Ops. (no inversion) found

   Cartesian axes

     site n.     atom                  positions (alat units)
         1           C   tau(   1) = (   0.0000000   0.0000000   0.0000000  )
         2           C   tau(   2) = (   0.2500000   0.2500000   0.2500000  )

     number of k points=    32
                       cart. coord. in units 2pi/alat
        k(    1) = (   0.0000000   0.0000000   0.0000000), wk =   0.0092593
        k(    2) = (  -0.1663340   0.1663340  -0.1663340), wk =   0.0555556
        k(    3) = (  -0.3326680   0.3326680  -0.3326680), wk =   0.0555556
        k(    4) = (   0.4990020  -0.4990020   0.4990020), wk =   0.0277778
        k(    5) = (  -0.0000000   0.3326680  -0.0000000), wk =   0.0555556
        k(    6) = (  -0.1663340   0.4990020  -0.1663340), wk =   0.0555556
        k(    7) = (   0.6653360  -0.3326680   0.6653360), wk =   0.0555556
        k(    8) = (   0.4990020  -0.1663340   0.4990020), wk =   0.0555556
        k(    9) = (   0.3326680  -0.0000000   0.3326680), wk =   0.0555556
        k(   10) = (  -0.0000000   0.6653360  -0.0000000), wk =   0.0555556
        k(   11) = (   0.8316700  -0.1663340   0.8316700), wk =   0.0555556
        k(   12) = (   0.6653360  -0.0000000   0.6653360), wk =   0.0555556
        k(   13) = (   0.0000000  -0.9980040   0.0000000), wk =   0.0277778
        k(   14) = (   0.6653360  -0.3326680   0.9980040), wk =   0.1111111
        k(   15) = (   0.4990020  -0.1663340   0.8316700), wk =   0.1111111
        k(   16) = (  -0.3326680  -0.9980040   0.0000000), wk =   0.1111111
        k(   17) = (  -0.1663340  -0.1663340  -0.1663340), wk =   0.0185185
        k(   18) = (  -0.3326680  -0.3326680  -0.3326680), wk =   0.0185185
        k(   19) = (   0.4990020   0.4990020   0.4990020), wk =   0.0092593
        k(   20) = (   0.4990020   0.1663340  -0.1663340), wk =   0.1111111
        k(   21) = (  -0.4990020  -0.1663340  -0.1663340), wk =   0.0555556
        k(   22) = (  -0.3326680  -0.6653360   0.6653360), wk =   0.1111111
        k(   23) = (   0.3326680   0.6653360   0.6653360), wk =   0.0555556
        k(   24) = (  -0.1663340  -0.4990020   0.4990020), wk =   0.1111111
        k(   25) = (   0.1663340   0.4990020   0.4990020), wk =   0.0555556
        k(   26) = (  -0.0000000  -0.3326680   0.3326680), wk =   0.0555556
        k(   27) = (  -0.1663340  -0.8316700   0.8316700), wk =   0.1111111
        k(   28) = (   0.1663340   0.8316700   0.8316700), wk =   0.0555556
        k(   29) = (  -0.0000000  -0.6653360   0.6653360), wk =   0.0555556
        k(   30) = (  -0.3326680  -0.6653360   0.9980040), wk =   0.1111111
        k(   31) = (   0.1663340   0.4990020   0.8316700), wk =   0.0555556
        k(   32) = (  -0.8316700  -0.1663340   0.4990020), wk =   0.0555556

     Initial potential from superposition of free atoms

     starting charge       7.9999, renormalised to       8.0000
     Starting wfcs are    8 randomized atomic wfcs

     Self-consistent Calculation

     iteration #  1     ecut=    40.00 Ry     beta= 0.70
     CG style diagonalization
     ethr =  1.00E-02,  avg # of iterations =  3.0

     total energy              =     -23.03959626 Ry
     estimated scf accuracy    <       0.13896270 Ry

[...]

     End of self-consistent calculation

          k = 0.0000 0.0000 0.0000 (   331 PWs)   bands (ev):

    -8.1133  13.4346  13.5173  13.5173

          k =-0.1663 0.1663-0.1663 (   320 PWs)   bands (ev):

[...]

     highest occupied level (ev):    13.5173

!    total energy              =     -23.05620578 Ry
     estimated scf accuracy    <          1.5E-10 Ry

     The total energy is the sum of the following terms:
     one-electron contribution =       8.18863972 Ry
     hartree contribution      =       1.89695778 Ry
     xc contribution           =      -7.38060675 Ry
     ewald contribution        =     -25.76119653 Ry

     convergence has been achieved in   6 iterations

     Forces acting on atoms (cartesian axes, Ry/au):

     atom    1 type  1   force =    -0.00264736   -0.00264736   -0.00264736
     atom    2 type  1   force =     0.00264736    0.00264736    0.00264736

     Total force =     0.006485     Total SCF correction =     0.000000

     Computing stress (Cartesian axis) and pressure

          total   stress  (Ry/bohr**3)                   (kbar)     P=      -35.67
  -0.00024248   0.00000657   0.00000657          -35.67        0.97        0.97
   0.00000657  -0.00024248   0.00000657            0.97      -35.67        0.97
   0.00000657   0.00000657  -0.00024248            0.97        0.97      -35.67

     BFGS Geometry Optimization
     Energy error            =      0.0E+00 Ry
     Gradient error          =      2.6E-03 Ry/Bohr

     number of scf cycles    =   1
     number of bfgs steps    =   0

     energy             new  =     -23.0562057796 Ry

     new trust radius        =       0.0045853569 bohr
     new conv_thr            =       0.0000000100 Ry

ATOMIC_POSITIONS (alat)
C            -0.0003964296       -0.0003964296       -0.0003964296
C             0.2503964296        0.2503964296        0.2503964296

     Writing config-only to output data dir ./Diamond.save/
     NEW-OLD atomic charge density approx. for the potential

[...]

     Threshold (ethr) on eigenvalues was too large:
     Diagonalizing with lowered threshold

     CG style diagonalization
     ethr =  5.04E-08,  avg # of iterations =  2.9

[...]

     Total force =     0.003772     Total SCF correction =     0.000032

[...]

     Energy error            =      7.9E-06 Ry
     Gradient error          =      1.5E-03 Ry/Bohr

     number of scf cycles    =   2
     number of bfgs steps    =   1

     energy             old  =     -23.0562057796 Ry
     energy             new  =     -23.0562136401 Ry

     CASE: energy            _new < energy            _old

     new trust radius        =       0.0016863216 bohr
     new conv_thr            =            1.0E-10 Ry

ATOMIC_POSITIONS (alat)
C            -0.0002506377       -0.0002506377       -0.0002506377
C             0.2502506377        0.2502506377        0.2502506377

     Writing config-only to output data dir ./Diamond.save/
     NEW-OLD atomic charge density approx. for the potential

     Self-consistent Calculation

[...]

     Threshold (ethr) on eigenvalues was too large:
     Diagonalizing with lowered threshold

     CG style diagonalization
     ethr =  1.10E-08,  avg # of iterations =  4.1

[...]

     total energy              =     -23.05621815 Ry
     estimated scf accuracy    <          5.3E-10 Ry

     iteration #  4     ecut=    40.00 Ry     beta= 0.70
     CG style diagonalization
     ethr =  6.64E-12,  avg # of iterations =  3.8

     End of self-consistent calculation

[...]

          k = 0.1663 0.4990 0.8317 (   318 PWs)   bands (ev):

[...]

          k =-0.8317-0.1663 0.4990 (   318 PWs)   bands (ev):

    -0.3654   1.6561   5.5883   7.4213

     highest occupied level (ev):    13.4898

!    total energy              =     -23.05621815 Ry
     estimated scf accuracy    <          2.2E-11 Ry

     The total energy is the sum of the following terms:
     one-electron contribution =       8.18866189 Ry
     hartree contribution      =       1.89695105 Ry
     xc contribution           =      -7.38060445 Ry
     ewald contribution        =     -25.76122664 Ry

     convergence has been achieved in   4 iterations

     Forces acting on atoms (cartesian axes, Ry/au):

     atom    1 type  1   force =     0.00000772    0.00000772    0.00000772
     atom    2 type  1   force =    -0.00000772   -0.00000772   -0.00000772

     Total force =     0.000019     Total SCF correction =     0.000006
     SCF correction compared to forces is large: reduce conv_thr to get better values

     Computing stress (Cartesian axis) and pressure

          total   stress  (Ry/bohr**3)                   (kbar)     P=      -35.70
  -0.00024269  -0.00000007  -0.00000007          -35.70       -0.01       -0.01
  -0.00000007  -0.00024269  -0.00000007           -0.01      -35.70       -0.01
  -0.00000007  -0.00000007  -0.00024269           -0.01       -0.01      -35.70

     Energy error            =      4.5E-06 Ry
     Gradient error          =      7.7E-06 Ry/Bohr

     bfgs converged in   3 scf cycles and   2 bfgs steps
     (criteria: energy <  1.0E-04 Ry, force <  1.0E-03 Ry/Bohr)

     End of BFGS Geometry Optimization

     Final energy             =     -23.0562181536 Ry

     File ./Diamond.bfgs deleted, as requested
Begin final coordinates

ATOMIC_POSITIONS (alat)
C            -0.0002506377       -0.0002506377       -0.0002506377
C             0.2502506377        0.2502506377        0.2502506377
End final coordinates

     Writing all to output data dir ./Diamond.save/

     General routines

     Parallel routines

   This run was terminated on:  19: 5:49  14Mar2022

   JOB DONE.