     Program PWSCF v.7.0 starts on 14Mar2022 at 23:25:39

     Waiting for input...
     Reading input from standard input
Warning: card &CELL ignored
Warning: card  CELL_DYNAMICS = 'BFGS', ignored
Warning: card  PRESS=0.1D0, ignored
Warning: card / ignored
     Message from routine read_cards :
     DEPRECATED: no units specified in ATOMIC_POSITIONS card
     Message from routine read_cards :
     ATOMIC_POSITIONS: units set to alat

     Current dimensions of program PWSCF are:
     Max number of different atomic species (ntypx) = 10
     Max number of k-points (npk) =  40000
     Max angular momentum in pseudopotentials (lmaxx) =  4
     Message from routine setup:
     using ibrav=0 with symmetry is DISCOURAGED, use correct ibrav instead

     Subspace diagonalization in iterative solution of the eigenvalue problem:
     a serial algorithm will be used

     Using Slab Decomposition

     bravais-lattice index     =            0
     lattice parameter (alat)  =       6.6720  a.u.
     unit-cell volume          =      74.2484 (a.u.)^3
     number of atoms/cell      =            2
     number of atomic types    =            1
     number of electrons       =         8.00
     number of Kohn-Sham states=            4
     kinetic-energy cutoff     =      40.0000  Ry
     charge density cutoff     =     160.0000  Ry
     scf convergence threshold =      1.0E-08
     mixing beta               =       0.7000
     number of iterations used =            8  plain     mixing
     energy convergence thresh.=      1.0E-04
     force convergence thresh. =      1.0E-03
     Exchange-correlation= SLA  PZ   NOGX NOGC
                           (   1   1   0   0   0   0   0)
     nstep                     =           50

     celldm(1)=   6.672000  celldm(2)=   0.000000  celldm(3)=   0.000000
     celldm(4)=   0.000000  celldm(5)=   0.000000  celldm(6)=   0.000000

     crystal axes: (cart. coord. in units of alat)
               a(1) = (  -0.502000   0.000000   0.496000 )
               a(2) = (   0.000000   0.502000   0.496000 )
               a(3) = (  -0.502000   0.502000   0.000000 )

     reciprocal axes: (cart. coord. in units 2 pi/alat)
               b(1) = ( -0.996016 -0.996016  1.008065 )
               b(2) = (  0.996016  0.996016  1.008065 )
               b(3) = ( -0.996016  0.996016 -1.008065 )

     PseudoPot. # 1 for C  read from file:
     ./C_LDA.UPF
     MD5 check sum: 407c1fe918d93b14b177d5600f28733c
     Pseudo is Ultrasoft + core correction, Zval =  4.0
     Generated by new atomic code, or converted to UPF format
     Using radial grid of  721 points,  4 beta functions with:
                l(1) =   0
                l(2) =   0
                l(3) =   1
                l(4) =   1
     Q(r) pseudized with  8 coefficients,  rinner =    1.100   1.100   1.100

     atomic species   valence    mass     pseudopotential
        C              4.00    12.01100     C ( 1.00)

      2 Sym. Ops. (no inversion) found

   Cartesian axes

     site n.     atom                  positions (alat units)
         1           C   tau(   1) = (   0.0000000   0.0000000   0.0000000  )
         2           C   tau(   2) = (   0.2500000   0.2500000   0.2500000  )

     number of k points=    68
                       cart. coord. in units 2pi/alat
        k(    1) = (   0.0000000   0.0000000   0.0000000), wk =   0.0092593
        k(    2) = (  -0.1660027   0.1660027  -0.1680108), wk =   0.0370370
        k(    3) = (  -0.3320053   0.3320053  -0.3360215), wk =   0.0370370
        k(    4) = (   0.4980080  -0.4980080   0.5040323), wk =   0.0185185
        k(    5) = (  -0.0000000   0.3320053   0.0000000), wk =   0.0370370
        k(    6) = (  -0.1660027   0.4980080  -0.1680108), wk =   0.0370370
        k(    7) = (   0.6640106  -0.3320053   0.6720430), wk =   0.0370370
        k(    8) = (   0.4980080  -0.1660027   0.5040323), wk =   0.0370370
        k(    9) = (   0.3320053  -0.0000000   0.3360215), wk =   0.0370370
        k(   10) = (  -0.0000000   0.6640106   0.0000000), wk =   0.0370370
        k(   11) = (   0.8300133  -0.1660027   0.8400538), wk =   0.0370370
        k(   12) = (   0.6640106  -0.0000000   0.6720430), wk =   0.0370370
        k(   13) = (   0.0000000  -0.9960159   0.0000000), wk =   0.0185185
        k(   14) = (  -0.0000000  -0.0000000   0.3360215), wk =   0.0185185
        k(   15) = (  -0.3320053   0.3320053   0.0000000), wk =   0.0185185
        k(   16) = (   0.4980080  -0.4980080   0.8400538), wk =   0.0370370
        k(   17) = (   0.3320053  -0.3320053   0.6720430), wk =   0.0370370
        k(   18) = (   0.1660027  -0.1660027   0.5040323), wk =   0.0370370
        k(   19) = (   0.6640106  -0.3320053   1.0080645), wk =   0.0370370
        k(   20) = (   0.4980080  -0.1660027   0.8400538), wk =   0.0370370
        k(   21) = (   0.3320053  -0.0000000   0.6720430), wk =   0.0370370
        k(   22) = (  -0.9960159  -0.3320053  -0.6720430), wk =   0.0370370
        k(   23) = (  -0.3320053  -0.9960159   0.0000000), wk =   0.0370370
        k(   24) = (  -0.8300133  -0.1660027  -0.5040323), wk =   0.0185185
        k(   25) = (   0.0000000  -0.9960159   0.3360215), wk =   0.0370370
        k(   26) = (  -0.0000000  -0.0000000   0.6720430), wk =   0.0185185
        k(   27) = (   0.3320053  -0.3320053   1.0080645), wk =   0.0185185
        k(   28) = (   0.1660027  -0.1660027   0.8400538), wk =   0.0370370
        k(   29) = (  -0.6640106  -0.9960159   0.0000000), wk =   0.0370370
        k(   30) = (   0.0000000   0.0000000  -1.0080645), wk =   0.0092593
        k(   31) = (   0.1660027   0.1660027   0.1680108), wk =   0.0185185
        k(   32) = (  -0.1660027  -0.1660027   0.1680108), wk =   0.0185185
        k(   33) = (   0.3320053   0.3320053   0.3360215), wk =   0.0185185
        k(   34) = (  -0.3320053  -0.3320053   0.3360215), wk =   0.0185185
        k(   35) = (  -0.4980080  -0.4980080  -0.5040323), wk =   0.0092593
        k(   36) = (   0.4980080   0.4980080  -0.5040323), wk =   0.0092593
        k(   37) = (   0.1660027   0.4980080   0.1680108), wk =   0.0370370
        k(   38) = (  -0.1660027  -0.4980080   0.1680108), wk =   0.0370370
        k(   39) = (   0.4980080  -0.1660027   0.1680108), wk =   0.0370370
        k(   40) = (  -0.6640106  -0.3320053  -0.6720430), wk =   0.0370370
        k(   41) = (   0.6640106   0.3320053  -0.6720430), wk =   0.0370370
        k(   42) = (  -0.3320053   0.6640106  -0.6720430), wk =   0.0370370
        k(   43) = (  -0.4980080  -0.1660027  -0.5040323), wk =   0.0370370
        k(   44) = (   0.4980080   0.1660027  -0.5040323), wk =   0.0370370
        k(   45) = (  -0.1660027   0.4980080  -0.5040323), wk =   0.0370370
        k(   46) = (   0.3320053   0.0000000  -0.3360215), wk =   0.0370370
        k(   47) = (  -0.8300133  -0.1660027  -0.8400538), wk =   0.0370370
        k(   48) = (   0.8300133   0.1660027  -0.8400538), wk =   0.0370370
        k(   49) = (  -0.1660027   0.8300133  -0.8400538), wk =   0.0370370
        k(   50) = (   0.6640106   0.0000000  -0.6720430), wk =   0.0370370
        k(   51) = (   0.3320053   0.3320053   0.0000000), wk =   0.0185185
        k(   52) = (  -0.4980080  -0.4980080  -0.8400538), wk =   0.0185185
        k(   53) = (   0.4980080   0.4980080  -0.8400538), wk =   0.0185185
        k(   54) = (  -0.3320053  -0.3320053  -0.6720430), wk =   0.0185185
        k(   55) = (   0.3320053   0.3320053  -0.6720430), wk =   0.0185185
        k(   56) = (  -0.1660027  -0.1660027  -0.5040323), wk =   0.0185185
        k(   57) = (   0.1660027   0.1660027  -0.5040323), wk =   0.0185185
        k(   58) = (  -0.6640106  -0.3320053  -1.0080645), wk =   0.0370370
        k(   59) = (  -0.4980080  -0.1660027  -0.8400538), wk =   0.0370370
        k(   60) = (   0.4980080   0.1660027  -0.8400538), wk =   0.0370370
        k(   61) = (  -0.1660027   0.4980080  -0.8400538), wk =   0.0370370
        k(   62) = (   0.3320053   0.0000000  -0.6720430), wk =   0.0370370
        k(   63) = (   0.9960159  -0.3320053   0.6720430), wk =   0.0370370
        k(   64) = (   0.8300133  -0.1660027   0.5040323), wk =   0.0370370
        k(   65) = (  -0.1660027  -0.8300133   0.5040323), wk =   0.0185185
        k(   66) = (  -0.3320053  -0.3320053  -1.0080645), wk =   0.0185185
        k(   67) = (  -0.1660027  -0.1660027  -0.8400538), wk =   0.0185185
        k(   68) = (   0.1660027   0.1660027  -0.8400538), wk =   0.0185185

     Initial potential from superposition of free atoms

     starting charge       7.9999, renormalised to       8.0000
     Starting wfcs are    8 randomized atomic wfcs

     Self-consistent Calculation

     iteration #  1     ecut=    40.00 Ry     beta= 0.70
     CG style diagonalization
     ethr =  1.00E-02,  avg # of iterations =  3.0

     total energy              =     -23.03895571 Ry
     estimated scf accuracy    <       0.14165987 Ry

[...]

     End of self-consistent calculation

          k = 0.0000 0.0000 0.0000 (   331 PWs)   bands (ev):

    -8.0716  13.4786  13.6495  13.8224

          k =-0.1660 0.1660-0.1680 (   319 PWs)   bands (ev):

[...]

     highest occupied level (ev):    13.8224

!    total energy              =     -23.05592508 Ry
     estimated scf accuracy    <          1.1E-09 Ry

     The total energy is the sum of the following terms:
     one-electron contribution =       8.28813461 Ry
     hartree contribution      =       1.88801881 Ry
     xc contribution           =      -7.39536510 Ry
     ewald contribution        =     -25.83671340 Ry

     convergence has been achieved in   6 iterations

     Forces acting on atoms (cartesian axes, Ry/au):

     atom    1 type  1   force =    -0.00520496   -0.00520496    0.01071665
     atom    2 type  1   force =     0.00520496    0.00520496   -0.01071665

     Total force =     0.018386     Total SCF correction =     0.000001

     Computing stress (Cartesian axis) and pressure

          total   stress  (Ry/bohr**3)                   (kbar)     P=        4.57
  -0.00022512  -0.00002967   0.00001303          -33.12       -4.37        1.92
  -0.00002967  -0.00022512   0.00001303           -4.37      -33.12        1.92
   0.00001303   0.00001303   0.00054343            1.92        1.92       79.94

     BFGS Geometry Optimization
     Energy error            =      0.0E+00 Ry
     Gradient error          =      1.1E-02 Ry/Bohr

     number of scf cycles    =   1
     number of bfgs steps    =   0

     energy             new  =     -23.0559250761 Ry

     new trust radius        =       0.0130011503 bohr
     new conv_thr            =       0.0000000100 Ry

ATOMIC_POSITIONS (alat)
C            -0.0007801204       -0.0007801204        0.0016062128
C             0.2507801204        0.2507801204        0.2483937872

     Writing config-only to output data dir ./Diamond.save/
     NEW-OLD atomic charge density approx. for the potential

[...]

     iteration #  1     ecut=    40.00 Ry     beta= 0.70
     CG style diagonalization
     c_bands:  1 eigenvalues not converged
     c_bands:  1 eigenvalues not converged
     c_bands:  1 eigenvalues not converged
     ethr =  1.00E-06,  avg # of iterations =  6.4

[...]

     Energy error            =      7.0E-05 Ry
     Gradient error          =      6.6E-03 Ry/Bohr

     number of scf cycles    =   2
     number of bfgs steps    =   1

     energy             old  =     -23.0559250761 Ry
     energy             new  =     -23.0559948244 Ry

     CASE: energy            _new < energy            _old

     new trust radius        =       0.0048840205 bohr
     new conv_thr            =            1.0E-10 Ry

ATOMIC_POSITIONS (alat)
C            -0.0004970576       -0.0004970576        0.0009933503
C             0.2504970576        0.2504970576        0.2490066497

     Writing config-only to output data dir ./Diamond.save/
     NEW-OLD atomic charge density approx. for the potential

     Self-consistent Calculation

     iteration #  1     ecut=    40.00 Ry     beta= 0.70
     CG style diagonalization
     c_bands:  1 eigenvalues not converged
     ethr =  1.00E-06,  avg # of iterations =  5.0

     Threshold (ethr) on eigenvalues was too large:
     Diagonalizing with lowered threshold

     CG style diagonalization
     ethr =  5.75E-08,  avg # of iterations =  3.1

[...]

     total energy              =     -23.05603172 Ry
     estimated scf accuracy    <          4.1E-09 Ry

     iteration #  4     ecut=    40.00 Ry     beta= 0.70
     CG style diagonalization
     ethr =  5.10E-11,  avg # of iterations =  3.9

     End of self-consistent calculation

[...]

          k =-0.1660-0.1660-0.8401 (   316 PWs)   bands (ev):

[...]

          k = 0.1660 0.1660-0.8401 (   316 PWs)   bands (ev):

    -1.2296   3.4965   5.7649   7.7315

     highest occupied level (ev):    13.7712

!    total energy              =     -23.05603172 Ry
     estimated scf accuracy    <          4.3E-11 Ry

     The total energy is the sum of the following terms:
     one-electron contribution =       8.28829196 Ry
     hartree contribution      =       1.88798348 Ry
     xc contribution           =      -7.39535966 Ry
     ewald contribution        =     -25.83694750 Ry

     convergence has been achieved in   4 iterations

     Forces acting on atoms (cartesian axes, Ry/au):

     atom    1 type  1   force =    -0.00003007   -0.00003007    0.00006926
     atom    2 type  1   force =     0.00003007    0.00003007   -0.00006926

     Total force =     0.000115     Total SCF correction =     0.000007

     Computing stress (Cartesian axis) and pressure

          total   stress  (Ry/bohr**3)                   (kbar)     P=        4.40
  -0.00022658  -0.00000009   0.00000003          -33.33       -0.01        0.01
  -0.00000009  -0.00022658   0.00000003           -0.01      -33.33        0.01
   0.00000003   0.00000003   0.00054287            0.01        0.01       79.86

     Energy error            =      3.7E-05 Ry
     Gradient error          =      6.9E-05 Ry/Bohr

     bfgs converged in   3 scf cycles and   2 bfgs steps
     (criteria: energy <  1.0E-04 Ry, force <  1.0E-03 Ry/Bohr)

     End of BFGS Geometry Optimization

     Final energy             =     -23.0560317161 Ry

     File ./Diamond.bfgs deleted, as requested
Begin final coordinates

ATOMIC_POSITIONS (alat)
C            -0.0004970576       -0.0004970576        0.0009933503
C             0.2504970576        0.2504970576        0.2490066497
End final coordinates

     Writing all to output data dir ./Diamond.save/

     General routines

     Parallel routines

   This run was terminated on:  23:26: 2  14Mar2022

   JOB DONE.