     Program PWSCF v.7.0 starts on 14Mar2022 at 23:24:51

     Waiting for input...
     Reading input from standard input
Warning: card &CELL ignored
Warning: card  CELL_DYNAMICS = 'BFGS', ignored
Warning: card  PRESS=0.1D0, ignored
Warning: card / ignored
     Message from routine read_cards :
     DEPRECATED: no units specified in ATOMIC_POSITIONS card
     Message from routine read_cards :
     ATOMIC_POSITIONS: units set to alat

     Current dimensions of program PWSCF are:
     Max number of different atomic species (ntypx) = 10
     Max number of k-points (npk) =  40000
     Max angular momentum in pseudopotentials (lmaxx) =  4
     Message from routine setup:
     using ibrav=0 with symmetry is DISCOURAGED, use correct ibrav instead

     Subspace diagonalization in iterative solution of the eigenvalue problem:
     a serial algorithm will be used

     Using Slab Decomposition

     bravais-lattice index     =            0
     lattice parameter (alat)  =       6.6720  a.u.
     unit-cell volume          =      74.2511 (a.u.)^3
     number of atoms/cell      =            2
     number of atomic types    =            1
     number of electrons       =         8.00
     number of Kohn-Sham states=            4
     kinetic-energy cutoff     =      40.0000  Ry
     charge density cutoff     =     160.0000  Ry
     scf convergence threshold =      1.0E-08
     mixing beta               =       0.7000
     number of iterations used =            8  plain     mixing
     energy convergence thresh.=      1.0E-04
     force convergence thresh. =      1.0E-03
     Exchange-correlation= SLA  PZ   NOGX NOGC
                           (   1   1   0   0   0   0   0)
     nstep                     =           50

     celldm(1)=   6.672000  celldm(2)=   0.000000  celldm(3)=   0.000000
     celldm(4)=   0.000000  celldm(5)=   0.000000  celldm(6)=   0.000000

     crystal axes: (cart. coord. in units of alat)
               a(1) = (  -0.499000   0.000000   0.502000 )
               a(2) = (   0.000000   0.499000   0.502000 )
               a(3) = (  -0.499000   0.499000   0.000000 )

     reciprocal axes: (cart. coord. in units 2 pi/alat)
               b(1) = ( -1.002004 -1.002004  0.996016 )
               b(2) = (  1.002004  1.002004  0.996016 )
               b(3) = ( -1.002004  1.002004 -0.996016 )

     PseudoPot. # 1 for C  read from file:
     ./C_LDA.UPF
     MD5 check sum: 407c1fe918d93b14b177d5600f28733c
     Pseudo is Ultrasoft + core correction, Zval =  4.0
     Generated by new atomic code, or converted to UPF format
     Using radial grid of  721 points,  4 beta functions with:
                l(1) =   0
                l(2) =   0
                l(3) =   1
                l(4) =   1
     Q(r) pseudized with  8 coefficients,  rinner =    1.100   1.100   1.100

     atomic species   valence    mass     pseudopotential
        C              4.00    12.01100     C ( 1.00)

      2 Sym. Ops. (no inversion) found

   Cartesian axes

     site n.     atom                  positions (alat units)
         1           C   tau(   1) = (   0.0000000   0.0000000   0.0000000  )
         2           C   tau(   2) = (   0.2500000   0.2500000   0.2500000  )

     number of k points=    68
                       cart. coord. in units 2pi/alat
        k(    1) = (   0.0000000   0.0000000   0.0000000), wk =   0.0092593
        k(    2) = (  -0.1670007   0.1670007  -0.1660027), wk =   0.0370370
        k(    3) = (  -0.3340013   0.3340013  -0.3320053), wk =   0.0370370
        k(    4) = (   0.5010020  -0.5010020   0.4980080), wk =   0.0185185
        k(    5) = (   0.0000000   0.3340013  -0.0000000), wk =   0.0370370
        k(    6) = (  -0.1670007   0.5010020  -0.1660027), wk =   0.0370370
        k(    7) = (   0.6680027  -0.3340013   0.6640106), wk =   0.0370370
        k(    8) = (   0.5010020  -0.1670007   0.4980080), wk =   0.0370370
        k(    9) = (   0.3340013  -0.0000000   0.3320053), wk =   0.0370370
        k(   10) = (   0.0000000   0.6680027  -0.0000000), wk =   0.0370370
        k(   11) = (   0.8350033  -0.1670007   0.8300133), wk =   0.0370370
        k(   12) = (   0.6680027  -0.0000000   0.6640106), wk =   0.0370370
        k(   13) = (   0.0000000  -1.0020040   0.0000000), wk =   0.0185185
        k(   14) = (   0.0000000   0.0000000   0.3320053), wk =   0.0185185
        k(   15) = (  -0.3340013   0.3340013  -0.0000000), wk =   0.0185185
        k(   16) = (   0.5010020  -0.5010020   0.8300133), wk =   0.0370370
        k(   17) = (   0.3340013  -0.3340013   0.6640106), wk =   0.0370370
        k(   18) = (   0.1670007  -0.1670007   0.4980080), wk =   0.0370370
        k(   19) = (   0.6680027  -0.3340013   0.9960159), wk =   0.0370370
        k(   20) = (   0.5010020  -0.1670007   0.8300133), wk =   0.0370370
        k(   21) = (   0.3340013  -0.0000000   0.6640106), wk =   0.0370370
        k(   22) = (  -1.0020040  -0.3340013  -0.6640106), wk =   0.0370370
        k(   23) = (  -0.3340013  -1.0020040   0.0000000), wk =   0.0370370
        k(   24) = (  -0.8350033  -0.1670007  -0.4980080), wk =   0.0185185
        k(   25) = (   0.0000000  -1.0020040   0.3320053), wk =   0.0370370
        k(   26) = (   0.0000000   0.0000000   0.6640106), wk =   0.0185185
        k(   27) = (   0.3340013  -0.3340013   0.9960159), wk =   0.0185185
        k(   28) = (   0.1670007  -0.1670007   0.8300133), wk =   0.0370370
        k(   29) = (  -0.6680027  -1.0020040   0.0000000), wk =   0.0370370
        k(   30) = (   0.0000000   0.0000000  -0.9960159), wk =   0.0092593
        k(   31) = (   0.1670007   0.1670007   0.1660027), wk =   0.0185185
        k(   32) = (  -0.1670007  -0.1670007   0.1660027), wk =   0.0185185
        k(   33) = (   0.3340013   0.3340013   0.3320053), wk =   0.0185185
        k(   34) = (  -0.3340013  -0.3340013   0.3320053), wk =   0.0185185
        k(   35) = (  -0.5010020  -0.5010020  -0.4980080), wk =   0.0092593
        k(   36) = (   0.5010020   0.5010020  -0.4980080), wk =   0.0092593
        k(   37) = (   0.1670007   0.5010020   0.1660027), wk =   0.0370370
        k(   38) = (  -0.1670007  -0.5010020   0.1660027), wk =   0.0370370
        k(   39) = (   0.5010020  -0.1670007   0.1660027), wk =   0.0370370
        k(   40) = (  -0.6680027  -0.3340013  -0.6640106), wk =   0.0370370
        k(   41) = (   0.6680027   0.3340013  -0.6640106), wk =   0.0370370
        k(   42) = (  -0.3340013   0.6680027  -0.6640106), wk =   0.0370370
        k(   43) = (  -0.5010020  -0.1670007  -0.4980080), wk =   0.0370370
        k(   44) = (   0.5010020   0.1670007  -0.4980080), wk =   0.0370370
        k(   45) = (  -0.1670007   0.5010020  -0.4980080), wk =   0.0370370
        k(   46) = (   0.3340013   0.0000000  -0.3320053), wk =   0.0370370
        k(   47) = (  -0.8350033  -0.1670007  -0.8300133), wk =   0.0370370
        k(   48) = (   0.8350033   0.1670007  -0.8300133), wk =   0.0370370
        k(   49) = (  -0.1670007   0.8350033  -0.8300133), wk =   0.0370370
        k(   50) = (   0.6680027  -0.0000000  -0.6640106), wk =   0.0370370
        k(   51) = (   0.3340013   0.3340013   0.0000000), wk =   0.0185185
        k(   52) = (  -0.5010020  -0.5010020  -0.8300133), wk =   0.0185185
        k(   53) = (   0.5010020   0.5010020  -0.8300133), wk =   0.0185185
        k(   54) = (  -0.3340013  -0.3340013  -0.6640106), wk =   0.0185185
        k(   55) = (   0.3340013   0.3340013  -0.6640106), wk =   0.0185185
        k(   56) = (  -0.1670007  -0.1670007  -0.4980080), wk =   0.0185185
        k(   57) = (   0.1670007   0.1670007  -0.4980080), wk =   0.0185185
        k(   58) = (  -0.6680027  -0.3340013  -0.9960159), wk =   0.0370370
        k(   59) = (  -0.5010020  -0.1670007  -0.8300133), wk =   0.0370370
        k(   60) = (   0.5010020   0.1670007  -0.8300133), wk =   0.0370370
        k(   61) = (  -0.1670007   0.5010020  -0.8300133), wk =   0.0370370
        k(   62) = (   0.3340013   0.0000000  -0.6640106), wk =   0.0370370
        k(   63) = (   1.0020040  -0.3340013   0.6640106), wk =   0.0370370
        k(   64) = (   0.8350033  -0.1670007   0.4980080), wk =   0.0370370
        k(   65) = (  -0.1670007  -0.8350033   0.4980080), wk =   0.0185185
        k(   66) = (  -0.3340013  -0.3340013  -0.9960159), wk =   0.0185185
        k(   67) = (  -0.1670007  -0.1670007  -0.8300133), wk =   0.0185185
        k(   68) = (   0.1670007   0.1670007  -0.8300133), wk =   0.0185185

     Initial potential from superposition of free atoms

     starting charge       7.9999, renormalised to       8.0000
     Starting wfcs are    8 randomized atomic wfcs

     Self-consistent Calculation

     iteration #  1     ecut=    40.00 Ry     beta= 0.70
     CG style diagonalization
     ethr =  1.00E-02,  avg # of iterations =  3.0

     total energy              =     -23.03923340 Ry
     estimated scf accuracy    <       0.14162043 Ry

[...]

     End of self-consistent calculation

          k = 0.0000 0.0000 0.0000 (   331 PWs)   bands (ev):

    -8.0718  13.5625  13.6492  13.7355

          k =-0.1670 0.1670-0.1660 (   320 PWs)   bands (ev):

[...]

     highest occupied level (ev):    13.7355

!    total energy              =     -23.05617989 Ry
     estimated scf accuracy    <          8.7E-10 Ry

     The total energy is the sum of the following terms:
     one-electron contribution =       8.28700966 Ry
     hartree contribution      =       1.88832256 Ry
     xc contribution           =      -7.39536617 Ry
     ewald contribution        =     -25.83614593 Ry

     convergence has been achieved in   6 iterations

     Forces acting on atoms (cartesian axes, Ry/au):

     atom    1 type  1   force =     0.00271157    0.00271157   -0.00534587
     atom    2 type  1   force =    -0.00271157   -0.00271157    0.00534587

     Total force =     0.009304     Total SCF correction =     0.000001

     Computing stress (Cartesian axis) and pressure

          total   stress  (Ry/bohr**3)                   (kbar)     P=        4.20
   0.00015895   0.00001449  -0.00000769           23.38        2.13       -1.13
   0.00001449   0.00015895  -0.00000769            2.13       23.38       -1.13
  -0.00000769  -0.00000769  -0.00023220           -1.13       -1.13      -34.16

     BFGS Geometry Optimization
     Energy error            =      0.0E+00 Ry
     Gradient error          =      5.3E-03 Ry/Bohr

     number of scf cycles    =   1
     number of bfgs steps    =   0

     energy             new  =     -23.0561798886 Ry

     new trust radius        =       0.0065790232 bohr
     new conv_thr            =       0.0000000100 Ry

ATOMIC_POSITIONS (alat)
C             0.0004064099        0.0004064099       -0.0008012399
C             0.2495935901        0.2495935901        0.2508012399

     Writing config-only to output data dir ./Diamond.save/
     NEW-OLD atomic charge density approx. for the potential

[...]

     iteration #  1     ecut=    40.00 Ry     beta= 0.70
     CG style diagonalization
     c_bands:  1 eigenvalues not converged
     c_bands:  1 eigenvalues not converged
     c_bands:  1 eigenvalues not converged
     ethr =  1.00E-06,  avg # of iterations =  5.5

[...]

     Total force =     0.005609     Total SCF correction =     0.000006

[...]

     Energy error            =      1.7E-05 Ry
     Gradient error          =      3.2E-03 Ry/Bohr

     number of scf cycles    =   2
     number of bfgs steps    =   1

     energy             old  =     -23.0561798886 Ry
     energy             new  =     -23.0561967839 Ry

     CASE: energy            _new < energy            _old

     new trust radius        =       0.0024744402 bohr
     new conv_thr            =            1.0E-10 Ry

ATOMIC_POSITIONS (alat)
C             0.0002511761        0.0002511761       -0.0005023269
C             0.2497488239        0.2497488239        0.2505023269

     Writing config-only to output data dir ./Diamond.save/
     NEW-OLD atomic charge density approx. for the potential

     Self-consistent Calculation

     iteration #  1     ecut=    40.00 Ry     beta= 0.70
     CG style diagonalization
     c_bands:  1 eigenvalues not converged
     ethr =  1.00E-06,  avg # of iterations =  3.7

     Threshold (ethr) on eigenvalues was too large:
     Diagonalizing with lowered threshold

     CG style diagonalization
     c_bands:  1 eigenvalues not converged
     c_bands:  1 eigenvalues not converged
     c_bands:  1 eigenvalues not converged
     ethr =  2.03E-08,  avg # of iterations =  4.5

[...]

     total energy              =     -23.05620671 Ry
     estimated scf accuracy    <          1.2E-09 Ry

     iteration #  4     ecut=    40.00 Ry     beta= 0.70
     CG style diagonalization
     ethr =  1.48E-11,  avg # of iterations =  3.8

     End of self-consistent calculation

[...]

          k =-0.1670-0.1670-0.8300 (   318 PWs)   bands (ev):

[...]

          k = 0.1670 0.1670-0.8300 (   318 PWs)   bands (ev):

    -1.3643   3.4008   5.7665   7.9099

     highest occupied level (ev):    13.6800

!    total energy              =     -23.05620671 Ry
     estimated scf accuracy    <          3.7E-11 Ry

     The total energy is the sum of the following terms:
     one-electron contribution =       8.28704242 Ry
     hartree contribution      =       1.88832786 Ry
     xc contribution           =      -7.39536991 Ry
     ewald contribution        =     -25.83620708 Ry

     convergence has been achieved in   4 iterations

     Forces acting on atoms (cartesian axes, Ry/au):

     atom    1 type  1   force =    -0.00001357   -0.00001357    0.00002643
     atom    2 type  1   force =     0.00001357    0.00001357   -0.00002643

     Total force =     0.000046     Total SCF correction =     0.000007
     SCF correction compared to forces is large: reduce conv_thr to get better values

     Computing stress (Cartesian axis) and pressure

          total   stress  (Ry/bohr**3)                   (kbar)     P=        4.21
   0.00015894  -0.00000015   0.00000009           23.38       -0.02        0.01
  -0.00000015   0.00015894   0.00000009           -0.02       23.38        0.01
   0.00000009   0.00000009  -0.00023204            0.01        0.01      -34.13

     Energy error            =      9.9E-06 Ry
     Gradient error          =      2.6E-05 Ry/Bohr

     bfgs converged in   3 scf cycles and   2 bfgs steps
     (criteria: energy <  1.0E-04 Ry, force <  1.0E-03 Ry/Bohr)

     End of BFGS Geometry Optimization

     Final energy             =     -23.0562067149 Ry

     File ./Diamond.bfgs deleted, as requested
Begin final coordinates

ATOMIC_POSITIONS (alat)
C             0.0002511761        0.0002511761       -0.0005023269
C             0.2497488239        0.2497488239        0.2505023269
End final coordinates

     Writing all to output data dir ./Diamond.save/

     General routines

     Parallel routines

   This run was terminated on:  23:25:12  14Mar2022

   JOB DONE.