     Program PWSCF v.7.0 starts on 14Mar2022 at 19: 6: 3

     Waiting for input...
     Reading input from standard input
Warning: card &CELL ignored
Warning: card  CELL_DYNAMICS = 'BFGS', ignored
Warning: card  PRESS=0.1D0, ignored
Warning: card / ignored
     Message from routine read_cards :
     DEPRECATED: no units specified in ATOMIC_POSITIONS card
     Message from routine read_cards :
     ATOMIC_POSITIONS: units set to alat

     Current dimensions of program PWSCF are:
     Max number of different atomic species (ntypx) = 10
     Max number of k-points (npk) =  40000
     Max angular momentum in pseudopotentials (lmaxx) =  4
     Message from routine setup:
     using ibrav=0 with symmetry is DISCOURAGED, use correct ibrav instead

     Subspace diagonalization in iterative solution of the eigenvalue problem:
     a serial algorithm will be used

     Using Slab Decomposition

     bravais-lattice index     =            0
     lattice parameter (alat)  =       6.6780  a.u.
     unit-cell volume          =      75.8007 (a.u.)^3
     number of atoms/cell      =            2
     number of atomic types    =            1
     number of electrons       =         8.00
     number of Kohn-Sham states=            4
     kinetic-energy cutoff     =      40.0000  Ry
     charge density cutoff     =     160.0000  Ry
     scf convergence threshold =      1.0E-08
     mixing beta               =       0.7000
     number of iterations used =            8  plain     mixing
     energy convergence thresh.=      1.0E-04
     force convergence thresh. =      1.0E-03
     Exchange-correlation= SLA  PZ   NOGX NOGC
                           (   1   1   0   0   0   0   0)
     nstep                     =           50

     celldm(1)=   6.678000  celldm(2)=   0.000000  celldm(3)=   0.000000
     celldm(4)=   0.000000  celldm(5)=   0.000000  celldm(6)=   0.000000

     crystal axes: (cart. coord. in units of alat)
               a(1) = (  -0.503000   0.000000   0.503000 )
               a(2) = (   0.000000   0.503000   0.503000 )
               a(3) = (  -0.503000   0.503000   0.000000 )

     reciprocal axes: (cart. coord. in units 2 pi/alat)
               b(1) = ( -0.994036 -0.994036  0.994036 )
               b(2) = (  0.994036  0.994036  0.994036 )
               b(3) = ( -0.994036  0.994036 -0.994036 )

     PseudoPot. # 1 for C  read from file:
     ./C_LDA.UPF
     MD5 check sum: 407c1fe918d93b14b177d5600f28733c
     Pseudo is Ultrasoft + core correction, Zval =  4.0
     Generated by new atomic code, or converted to UPF format
     Using radial grid of  721 points,  4 beta functions with:
                l(1) =   0
                l(2) =   0
                l(3) =   1
                l(4) =   1
     Q(r) pseudized with  8 coefficients,  rinner =    1.100   1.100   1.100

     atomic species   valence    mass     pseudopotential
        C              4.00    12.01100     C ( 1.00)

      6 Sym. Ops. (no inversion) found

   Cartesian axes

     site n.     atom                  positions (alat units)
         1           C   tau(   1) = (   0.0000000   0.0000000   0.0000000  )
         2           C   tau(   2) = (   0.2500000   0.2500000   0.2500000  )

     number of k points=    32
                       cart. coord. in units 2pi/alat
        k(    1) = (   0.0000000   0.0000000   0.0000000), wk =   0.0092593
        k(    2) = (  -0.1656726   0.1656726  -0.1656726), wk =   0.0555556
        k(    3) = (  -0.3313453   0.3313453  -0.3313453), wk =   0.0555556
        k(    4) = (   0.4970179  -0.4970179   0.4970179), wk =   0.0277778
        k(    5) = (   0.0000000   0.3313453   0.0000000), wk =   0.0555556
        k(    6) = (  -0.1656726   0.4970179  -0.1656726), wk =   0.0555556
        k(    7) = (   0.6626905  -0.3313453   0.6626905), wk =   0.0555556
        k(    8) = (   0.4970179  -0.1656726   0.4970179), wk =   0.0555556
        k(    9) = (   0.3313453  -0.0000000   0.3313453), wk =   0.0555556
        k(   10) = (   0.0000000   0.6626905   0.0000000), wk =   0.0555556
        k(   11) = (   0.8283632  -0.1656726   0.8283632), wk =   0.0555556
        k(   12) = (   0.6626905  -0.0000000   0.6626905), wk =   0.0555556
        k(   13) = (   0.0000000  -0.9940358   0.0000000), wk =   0.0277778
        k(   14) = (   0.6626905  -0.3313453   0.9940358), wk =   0.1111111
        k(   15) = (   0.4970179  -0.1656726   0.8283632), wk =   0.1111111
        k(   16) = (  -0.3313453  -0.9940358   0.0000000), wk =   0.1111111
        k(   17) = (  -0.1656726  -0.1656726  -0.1656726), wk =   0.0185185
        k(   18) = (  -0.3313453  -0.3313453  -0.3313453), wk =   0.0185185
        k(   19) = (   0.4970179   0.4970179   0.4970179), wk =   0.0092593
        k(   20) = (   0.4970179   0.1656726  -0.1656726), wk =   0.1111111
        k(   21) = (  -0.4970179  -0.1656726  -0.1656726), wk =   0.0555556
        k(   22) = (  -0.3313453  -0.6626905   0.6626905), wk =   0.1111111
        k(   23) = (   0.3313453   0.6626905   0.6626905), wk =   0.0555556
        k(   24) = (  -0.1656726  -0.4970179   0.4970179), wk =   0.1111111
        k(   25) = (   0.1656726   0.4970179   0.4970179), wk =   0.0555556
        k(   26) = (  -0.0000000  -0.3313453   0.3313453), wk =   0.0555556
        k(   27) = (  -0.1656726  -0.8283632   0.8283632), wk =   0.1111111
        k(   28) = (   0.1656726   0.8283632   0.8283632), wk =   0.0555556
        k(   29) = (  -0.0000000  -0.6626905   0.6626905), wk =   0.0555556
        k(   30) = (  -0.3313453  -0.6626905   0.9940358), wk =   0.1111111
        k(   31) = (   0.1656726   0.4970179   0.8283632), wk =   0.0555556
        k(   32) = (  -0.8283632  -0.1656726   0.4970179), wk =   0.0555556

     Initial potential from superposition of free atoms

     starting charge       7.9999, renormalised to       8.0000
     Starting wfcs are    8 randomized atomic wfcs

     Self-consistent Calculation

     iteration #  1     ecut=    40.00 Ry     beta= 0.70
     CG style diagonalization
     ethr =  1.00E-02,  avg # of iterations =  3.0

     total energy              =     -23.03959508 Ry
     estimated scf accuracy    <       0.13523534 Ry

[...]

     End of self-consistent calculation

          k = 0.0000 0.0000 0.0000 (   331 PWs)   bands (ev):

    -8.1697  13.1096  13.3551  13.3551

          k =-0.1657 0.1657-0.1657 (   320 PWs)   bands (ev):

[...]

     highest occupied level (ev):    13.3551

!    total energy              =     -23.05577228 Ry
     estimated scf accuracy    <          2.4E-10 Ry

     The total energy is the sum of the following terms:
     one-electron contribution =       8.05438577 Ry
     hartree contribution      =       1.90879410 Ry
     xc contribution           =      -7.36042686 Ry
     ewald contribution        =     -25.65852529 Ry

     convergence has been achieved in   6 iterations

     Forces acting on atoms (cartesian axes, Ry/au):

     atom    1 type  1   force =    -0.00784468   -0.00784468   -0.00784468
     atom    2 type  1   force =     0.00784468    0.00784468    0.00784468

     Total force =     0.019215     Total SCF correction =     0.000005

     Computing stress (Cartesian axis) and pressure

          total   stress  (Ry/bohr**3)                   (kbar)     P=      -88.21
  -0.00059965   0.00001705   0.00001705          -88.21        2.51        2.51
   0.00001705  -0.00059965   0.00001705            2.51      -88.21        2.51
   0.00001705   0.00001705  -0.00059965            2.51        2.51      -88.21

     BFGS Geometry Optimization
     Energy error            =      0.0E+00 Ry
     Gradient error          =      7.8E-03 Ry/Bohr

     number of scf cycles    =   1
     number of bfgs steps    =   0

     energy             new  =     -23.0557722773 Ry

     new trust radius        =       0.0135873782 bohr
     new conv_thr            =       0.0000000100 Ry

ATOMIC_POSITIONS (alat)
C            -0.0011747045       -0.0011747045       -0.0011747045
C             0.2511747045        0.2511747045        0.2511747045

     Writing config-only to output data dir ./Diamond.save/
     NEW-OLD atomic charge density approx. for the potential

[...]

     Energy error            =      7.8E-05 Ry
     Gradient error          =      4.3E-03 Ry/Bohr

     number of scf cycles    =   2
     number of bfgs steps    =   1

     energy             old  =     -23.0557722773 Ry
     energy             new  =     -23.0558503843 Ry

     CASE: energy            _new < energy            _old

     new trust radius        =       0.0048257516 bohr
     new conv_thr            =            1.0E-10 Ry

ATOMIC_POSITIONS (alat)
C            -0.0007574914       -0.0007574914       -0.0007574914
C             0.2507574914        0.2507574914        0.2507574914

     Writing config-only to output data dir ./Diamond.save/
     NEW-OLD atomic charge density approx. for the potential

     Self-consistent Calculation

[...]

     Threshold (ethr) on eigenvalues was too large:
     Diagonalizing with lowered threshold

     CG style diagonalization
     ethr =  5.33E-08,  avg # of iterations =  2.8

[...]

     total energy              =     -23.05588555 Ry
     estimated scf accuracy    <          4.2E-09 Ry

     iteration #  4     ecut=    40.00 Ry     beta= 0.70
     CG style diagonalization
     ethr =  5.25E-11,  avg # of iterations =  3.8

     End of self-consistent calculation

[...]

          k = 0.1657 0.4970 0.8284 (   324 PWs)   bands (ev):

[...]

          k =-0.8284-0.1657 0.4970 (   324 PWs)   bands (ev):

    -0.5028   1.5427   5.4409   7.2775

     highest occupied level (ev):    13.2745

!    total energy              =     -23.05588555 Ry
     estimated scf accuracy    <          9.0E-11 Ry

     The total energy is the sum of the following terms:
     one-electron contribution =       8.05459367 Ry
     hartree contribution      =       1.90872366 Ry
     xc contribution           =      -7.36040660 Ry
     ewald contribution        =     -25.65879628 Ry

     convergence has been achieved in   4 iterations

     Forces acting on atoms (cartesian axes, Ry/au):

     atom    1 type  1   force =     0.00007825    0.00007825    0.00007825
     atom    2 type  1   force =    -0.00007825   -0.00007825   -0.00007825

     Total force =     0.000192     Total SCF correction =     0.000010

     Computing stress (Cartesian axis) and pressure

          total   stress  (Ry/bohr**3)                   (kbar)     P=      -88.49
  -0.00060151  -0.00000024  -0.00000024          -88.49       -0.04       -0.04
  -0.00000024  -0.00060151  -0.00000024           -0.04      -88.49       -0.04
  -0.00000024  -0.00000024  -0.00060151           -0.04       -0.04      -88.49

     Energy error            =      3.5E-05 Ry
     Gradient error          =      7.8E-05 Ry/Bohr

     bfgs converged in   3 scf cycles and   2 bfgs steps
     (criteria: energy <  1.0E-04 Ry, force <  1.0E-03 Ry/Bohr)

     End of BFGS Geometry Optimization

     Final energy             =     -23.0558855524 Ry

     File ./Diamond.bfgs deleted, as requested
Begin final coordinates

ATOMIC_POSITIONS (alat)
C            -0.0007574914       -0.0007574914       -0.0007574914
C             0.2507574914        0.2507574914        0.2507574914
End final coordinates

     Writing all to output data dir ./Diamond.save/

     General routines

     Parallel routines

   This run was terminated on:  19: 6:14  14Mar2022

   JOB DONE.