     Program PWSCF v.7.0 starts on 14Mar2022 at 19: 5:10

     Waiting for input...
     Reading input from standard input
Warning: card &CELL ignored
Warning: card  CELL_DYNAMICS = 'BFGS', ignored
Warning: card  PRESS=0.1D0, ignored
Warning: card / ignored
     Message from routine read_cards :
     DEPRECATED: no units specified in ATOMIC_POSITIONS card
     Message from routine read_cards :
     ATOMIC_POSITIONS: units set to alat

     Current dimensions of program PWSCF are:
     Max number of different atomic species (ntypx) = 10
     Max number of k-points (npk) =  40000
     Max angular momentum in pseudopotentials (lmaxx) =  4
     Message from routine setup:
     using ibrav=0 with symmetry is DISCOURAGED, use correct ibrav instead

     Subspace diagonalization in iterative solution of the eigenvalue problem:
     a serial algorithm will be used

     Using Slab Decomposition

     bravais-lattice index     =            0
     lattice parameter (alat)  =       6.6780  a.u.
     unit-cell volume          =      73.5626 (a.u.)^3
     number of atoms/cell      =            2
     number of atomic types    =            1
     number of electrons       =         8.00
     number of Kohn-Sham states=            4
     kinetic-energy cutoff     =      40.0000  Ry
     charge density cutoff     =     160.0000  Ry
     scf convergence threshold =      1.0E-08
     mixing beta               =       0.7000
     number of iterations used =            8  plain     mixing
     energy convergence thresh.=      1.0E-04
     force convergence thresh. =      1.0E-03
     Exchange-correlation= SLA  PZ   NOGX NOGC
                           (   1   1   0   0   0   0   0)
     nstep                     =           50

     celldm(1)=   6.678000  celldm(2)=   0.000000  celldm(3)=   0.000000
     celldm(4)=   0.000000  celldm(5)=   0.000000  celldm(6)=   0.000000

     crystal axes: (cart. coord. in units of alat)
               a(1) = (  -0.498000   0.000000   0.498000 )
               a(2) = (   0.000000   0.498000   0.498000 )
               a(3) = (  -0.498000   0.498000   0.000000 )

     reciprocal axes: (cart. coord. in units 2 pi/alat)
               b(1) = ( -1.004016 -1.004016  1.004016 )
               b(2) = (  1.004016  1.004016  1.004016 )
               b(3) = ( -1.004016  1.004016 -1.004016 )

     PseudoPot. # 1 for C  read from file:
     ./C_LDA.UPF
     MD5 check sum: 407c1fe918d93b14b177d5600f28733c
     Pseudo is Ultrasoft + core correction, Zval =  4.0
     Generated by new atomic code, or converted to UPF format
     Using radial grid of  721 points,  4 beta functions with:
                l(1) =   0
                l(2) =   0
                l(3) =   1
                l(4) =   1
     Q(r) pseudized with  8 coefficients,  rinner =    1.100   1.100   1.100

     atomic species   valence    mass     pseudopotential
        C              4.00    12.01100     C ( 1.00)

      6 Sym. Ops. (no inversion) found

   Cartesian axes

     site n.     atom                  positions (alat units)
         1           C   tau(   1) = (   0.0000000   0.0000000   0.0000000  )
         2           C   tau(   2) = (   0.2500000   0.2500000   0.2500000  )

     number of k points=    32
                       cart. coord. in units 2pi/alat
        k(    1) = (   0.0000000   0.0000000   0.0000000), wk =   0.0092593
        k(    2) = (  -0.1673360   0.1673360  -0.1673360), wk =   0.0555556
        k(    3) = (  -0.3346720   0.3346720  -0.3346720), wk =   0.0555556
        k(    4) = (   0.5020080  -0.5020080   0.5020080), wk =   0.0277778
        k(    5) = (   0.0000000   0.3346720   0.0000000), wk =   0.0555556
        k(    6) = (  -0.1673360   0.5020080  -0.1673360), wk =   0.0555556
        k(    7) = (   0.6693440  -0.3346720   0.6693440), wk =   0.0555556
        k(    8) = (   0.5020080  -0.1673360   0.5020080), wk =   0.0555556
        k(    9) = (   0.3346720  -0.0000000   0.3346720), wk =   0.0555556
        k(   10) = (   0.0000000   0.6693440   0.0000000), wk =   0.0555556
        k(   11) = (   0.8366801  -0.1673360   0.8366801), wk =   0.0555556
        k(   12) = (   0.6693440  -0.0000000   0.6693440), wk =   0.0555556
        k(   13) = (   0.0000000  -1.0040161   0.0000000), wk =   0.0277778
        k(   14) = (   0.6693440  -0.3346720   1.0040161), wk =   0.1111111
        k(   15) = (   0.5020080  -0.1673360   0.8366801), wk =   0.1111111
        k(   16) = (  -0.3346720  -1.0040161   0.0000000), wk =   0.1111111
        k(   17) = (  -0.1673360  -0.1673360  -0.1673360), wk =   0.0185185
        k(   18) = (  -0.3346720  -0.3346720  -0.3346720), wk =   0.0185185
        k(   19) = (   0.5020080   0.5020080   0.5020080), wk =   0.0092593
        k(   20) = (   0.5020080   0.1673360  -0.1673360), wk =   0.1111111
        k(   21) = (  -0.5020080  -0.1673360  -0.1673360), wk =   0.0555556
        k(   22) = (  -0.3346720  -0.6693440   0.6693440), wk =   0.1111111
        k(   23) = (   0.3346720   0.6693440   0.6693440), wk =   0.0555556
        k(   24) = (  -0.1673360  -0.5020080   0.5020080), wk =   0.1111111
        k(   25) = (   0.1673360   0.5020080   0.5020080), wk =   0.0555556
        k(   26) = (  -0.0000000  -0.3346720   0.3346720), wk =   0.0555556
        k(   27) = (  -0.1673360  -0.8366801   0.8366801), wk =   0.1111111
        k(   28) = (   0.1673360   0.8366801   0.8366801), wk =   0.0555556
        k(   29) = (  -0.0000000  -0.6693440   0.6693440), wk =   0.0555556
        k(   30) = (  -0.3346720  -0.6693440   1.0040161), wk =   0.1111111
        k(   31) = (   0.1673360   0.5020080   0.8366801), wk =   0.0555556
        k(   32) = (  -0.8366801  -0.1673360   0.5020080), wk =   0.0555556

     Initial potential from superposition of free atoms

     starting charge       7.9999, renormalised to       8.0000
     Starting wfcs are    8 randomized atomic wfcs

     Self-consistent Calculation

     iteration #  1     ecut=    40.00 Ry     beta= 0.70
     CG style diagonalization
     ethr =  1.00E-02,  avg # of iterations =  3.0

     total energy              =     -23.03870357 Ry
     estimated scf accuracy    <       0.14476573 Ry

[...]

     End of self-consistent calculation

          k = 0.0000 0.0000 0.0000 (   331 PWs)   bands (ev):

    -8.0273  13.7645  13.7645  13.9326

          k =-0.1673 0.1673-0.1673 (   320 PWs)   bands (ev):

[...]

     highest occupied level (ev):    13.9326

!    total energy              =     -23.05604839 Ry
     estimated scf accuracy    <          1.2E-10 Ry

     The total energy is the sum of the following terms:
     one-electron contribution =       8.39216823 Ry
     hartree contribution      =       1.87937988 Ry
     xc contribution           =      -7.41130212 Ry
     ewald contribution        =     -25.91629438 Ry

     convergence has been achieved in   6 iterations

     Forces acting on atoms (cartesian axes, Ry/au):

     atom    1 type  1   force =     0.00539125    0.00539125    0.00539125
     atom    2 type  1   force =    -0.00539125   -0.00539125   -0.00539125

     Total force =     0.013206     Total SCF correction =     0.000001

     Computing stress (Cartesian axis) and pressure

          total   stress  (Ry/bohr**3)                   (kbar)     P=       48.46
   0.00032944  -0.00001592  -0.00001592           48.46       -2.34       -2.34
  -0.00001592   0.00032944  -0.00001592           -2.34       48.46       -2.34
  -0.00001592  -0.00001592   0.00032944           -2.34       -2.34       48.46

     BFGS Geometry Optimization
     Energy error            =      0.0E+00 Ry
     Gradient error          =      5.4E-03 Ry/Bohr

     number of scf cycles    =   1
     number of bfgs steps    =   0

     energy             new  =     -23.0560483925 Ry

     new trust radius        =       0.0093379187 bohr
     new conv_thr            =       0.0000000100 Ry

ATOMIC_POSITIONS (alat)
C             0.0008073150        0.0008073150        0.0008073150
C             0.2491926850        0.2491926850        0.2491926850

     Writing config-only to output data dir ./Diamond.save/
     NEW-OLD atomic charge density approx. for the potential

[...]

     Energy error            =      3.4E-05 Ry
     Gradient error          =      3.4E-03 Ry/Bohr

     number of scf cycles    =   2
     number of bfgs steps    =   1

     energy             old  =     -23.0560483925 Ry
     energy             new  =     -23.0560822921 Ry

     CASE: energy            _new < energy            _old

     new trust radius        =       0.0035947947 bohr
     new conv_thr            =            1.0E-10 Ry

ATOMIC_POSITIONS (alat)
C             0.0004965250        0.0004965250        0.0004965250
C             0.2495034750        0.2495034750        0.2495034750

     Writing config-only to output data dir ./Diamond.save/
     NEW-OLD atomic charge density approx. for the potential

     Self-consistent Calculation

[...]

     Threshold (ethr) on eigenvalues was too large:
     Diagonalizing with lowered threshold

     CG style diagonalization
     ethr =  3.49E-08,  avg # of iterations =  3.2

[...]

     total energy              =     -23.05610303 Ry
     estimated scf accuracy    <          2.3E-09 Ry

     iteration #  4     ecut=    40.00 Ry     beta= 0.70
     CG style diagonalization
     ethr =  2.89E-11,  avg # of iterations =  3.8

     End of self-consistent calculation

[...]

          k = 0.1673 0.5020 0.8367 (   312 PWs)   bands (ev):

[...]

          k =-0.8367-0.1673 0.5020 (   312 PWs)   bands (ev):

    -0.1553   1.8276   5.8127   7.6418

     highest occupied level (ev):    13.8212

!    total energy              =     -23.05610303 Ry
     estimated scf accuracy    <          2.9E-11 Ry

     The total energy is the sum of the following terms:
     one-electron contribution =       8.39225567 Ry
     hartree contribution      =       1.87935260 Ry
     xc contribution           =      -7.41129653 Ry
     ewald contribution        =     -25.91641477 Ry

     convergence has been achieved in   4 iterations

     Forces acting on atoms (cartesian axes, Ry/au):

     atom    1 type  1   force =     0.00003677    0.00003677    0.00003677
     atom    2 type  1   force =    -0.00003677   -0.00003677   -0.00003677

     Total force =     0.000090     Total SCF correction =     0.000005

     Computing stress (Cartesian axis) and pressure

          total   stress  (Ry/bohr**3)                   (kbar)     P=       48.34
   0.00032861  -0.00000006  -0.00000006           48.34       -0.01       -0.01
  -0.00000006   0.00032861  -0.00000006           -0.01       48.34       -0.01
  -0.00000006  -0.00000006   0.00032861           -0.01       -0.01       48.34

     Energy error            =      2.1E-05 Ry
     Gradient error          =      3.7E-05 Ry/Bohr

     bfgs converged in   3 scf cycles and   2 bfgs steps
     (criteria: energy <  1.0E-04 Ry, force <  1.0E-03 Ry/Bohr)

     End of BFGS Geometry Optimization

     Final energy             =     -23.0561030317 Ry

     File ./Diamond.bfgs deleted, as requested
Begin final coordinates

ATOMIC_POSITIONS (alat)
C             0.0004965250        0.0004965250        0.0004965250
C             0.2495034750        0.2495034750        0.2495034750
End final coordinates

     Writing all to output data dir ./Diamond.save/

     General routines

     Parallel routines

   This run was terminated on:  19: 5:21  14Mar2022

   JOB DONE.