     Program PWSCF v.7.0 starts on 14Mar2022 at 19: 4:57

     Waiting for input...
     Reading input from standard input
Warning: card &CELL ignored
Warning: card  CELL_DYNAMICS = 'BFGS', ignored
Warning: card  PRESS=0.1D0, ignored
Warning: card / ignored
     Message from routine read_cards :
     DEPRECATED: no units specified in ATOMIC_POSITIONS card
     Message from routine read_cards :
     ATOMIC_POSITIONS: units set to alat

     Current dimensions of program PWSCF are:
     Max number of different atomic species (ntypx) = 10
     Max number of k-points (npk) =  40000
     Max angular momentum in pseudopotentials (lmaxx) =  4
     Message from routine setup:
     using ibrav=0 with symmetry is DISCOURAGED, use correct ibrav instead

     Subspace diagonalization in iterative solution of the eigenvalue problem:
     a serial algorithm will be used

     Using Slab Decomposition

     bravais-lattice index     =            0
     lattice parameter (alat)  =       6.6780  a.u.
     unit-cell volume          =      73.1204 (a.u.)^3
     number of atoms/cell      =            2
     number of atomic types    =            1
     number of electrons       =         8.00
     number of Kohn-Sham states=            4
     kinetic-energy cutoff     =      40.0000  Ry
     charge density cutoff     =     160.0000  Ry
     scf convergence threshold =      1.0E-08
     mixing beta               =       0.7000
     number of iterations used =            8  plain     mixing
     energy convergence thresh.=      1.0E-04
     force convergence thresh. =      1.0E-03
     Exchange-correlation= SLA  PZ   NOGX NOGC
                           (   1   1   0   0   0   0   0)
     nstep                     =           50

     celldm(1)=   6.678000  celldm(2)=   0.000000  celldm(3)=   0.000000
     celldm(4)=   0.000000  celldm(5)=   0.000000  celldm(6)=   0.000000

     crystal axes: (cart. coord. in units of alat)
               a(1) = (  -0.497000   0.000000   0.497000 )
               a(2) = (   0.000000   0.497000   0.497000 )
               a(3) = (  -0.497000   0.497000   0.000000 )

     reciprocal axes: (cart. coord. in units 2 pi/alat)
               b(1) = ( -1.006036 -1.006036  1.006036 )
               b(2) = (  1.006036  1.006036  1.006036 )
               b(3) = ( -1.006036  1.006036 -1.006036 )

     PseudoPot. # 1 for C  read from file:
     ./C_LDA.UPF
     MD5 check sum: 407c1fe918d93b14b177d5600f28733c
     Pseudo is Ultrasoft + core correction, Zval =  4.0
     Generated by new atomic code, or converted to UPF format
     Using radial grid of  721 points,  4 beta functions with:
                l(1) =   0
                l(2) =   0
                l(3) =   1
                l(4) =   1
     Q(r) pseudized with  8 coefficients,  rinner =    1.100   1.100   1.100

     atomic species   valence    mass     pseudopotential
        C              4.00    12.01100     C ( 1.00)

      6 Sym. Ops. (no inversion) found

   Cartesian axes

     site n.     atom                  positions (alat units)
         1           C   tau(   1) = (   0.0000000   0.0000000   0.0000000  )
         2           C   tau(   2) = (   0.2500000   0.2500000   0.2500000  )

     number of k points=    32
                       cart. coord. in units 2pi/alat
        k(    1) = (   0.0000000   0.0000000   0.0000000), wk =   0.0092593
        k(    2) = (  -0.1676727   0.1676727  -0.1676727), wk =   0.0555556
        k(    3) = (  -0.3353454   0.3353454  -0.3353454), wk =   0.0555556
        k(    4) = (   0.5030181  -0.5030181   0.5030181), wk =   0.0277778
        k(    5) = (   0.0000000   0.3353454   0.0000000), wk =   0.0555556
        k(    6) = (  -0.1676727   0.5030181  -0.1676727), wk =   0.0555556
        k(    7) = (   0.6706908  -0.3353454   0.6706908), wk =   0.0555556
        k(    8) = (   0.5030181  -0.1676727   0.5030181), wk =   0.0555556
        k(    9) = (   0.3353454  -0.0000000   0.3353454), wk =   0.0555556
        k(   10) = (   0.0000000   0.6706908   0.0000000), wk =   0.0555556
        k(   11) = (   0.8383635  -0.1676727   0.8383635), wk =   0.0555556
        k(   12) = (   0.6706908  -0.0000000   0.6706908), wk =   0.0555556
        k(   13) = (   0.0000000  -1.0060362   0.0000000), wk =   0.0277778
        k(   14) = (   0.6706908  -0.3353454   1.0060362), wk =   0.1111111
        k(   15) = (   0.5030181  -0.1676727   0.8383635), wk =   0.1111111
        k(   16) = (  -0.3353454  -1.0060362   0.0000000), wk =   0.1111111
        k(   17) = (  -0.1676727  -0.1676727  -0.1676727), wk =   0.0185185
        k(   18) = (  -0.3353454  -0.3353454  -0.3353454), wk =   0.0185185
        k(   19) = (   0.5030181   0.5030181   0.5030181), wk =   0.0092593
        k(   20) = (   0.5030181   0.1676727  -0.1676727), wk =   0.1111111
        k(   21) = (  -0.5030181  -0.1676727  -0.1676727), wk =   0.0555556
        k(   22) = (  -0.3353454  -0.6706908   0.6706908), wk =   0.1111111
        k(   23) = (   0.3353454   0.6706908   0.6706908), wk =   0.0555556
        k(   24) = (  -0.1676727  -0.5030181   0.5030181), wk =   0.1111111
        k(   25) = (   0.1676727   0.5030181   0.5030181), wk =   0.0555556
        k(   26) = (  -0.0000000  -0.3353454   0.3353454), wk =   0.0555556
        k(   27) = (  -0.1676727  -0.8383635   0.8383635), wk =   0.1111111
        k(   28) = (   0.1676727   0.8383635   0.8383635), wk =   0.0555556
        k(   29) = (  -0.0000000  -0.6706908   0.6706908), wk =   0.0555556
        k(   30) = (  -0.3353454  -0.6706908   1.0060362), wk =   0.1111111
        k(   31) = (   0.1676727   0.5030181   0.8383635), wk =   0.0555556
        k(   32) = (  -0.8383635  -0.1676727   0.5030181), wk =   0.0555556

     Initial potential from superposition of free atoms

     starting charge       7.9999, renormalised to       8.0000
     Starting wfcs are    8 randomized atomic wfcs

     Self-consistent Calculation

     iteration #  1     ecut=    40.00 Ry     beta= 0.70
     CG style diagonalization
     ethr =  1.00E-02,  avg # of iterations =  3.0

     total energy              =     -23.03822405 Ry
     estimated scf accuracy    <       0.14654154 Ry

[...]

     End of self-consistent calculation

          k = 0.0000 0.0000 0.0000 (   331 PWs)   bands (ev):

    -7.9981  13.8482  13.8482  14.1016

          k =-0.1677 0.1677-0.1677 (   311 PWs)   bands (ev):

[...]

     highest occupied level (ev):    14.1016

!    total energy              =     -23.05575754 Ry
     estimated scf accuracy    <          8.4E-10 Ry

     The total energy is the sum of the following terms:
     one-electron contribution =       8.46062648 Ry
     hartree contribution      =       1.87354302 Ry
     xc contribution           =      -7.42163736 Ry
     ewald contribution        =     -25.96828968 Ry

     convergence has been achieved in   6 iterations

     Forces acting on atoms (cartesian axes, Ry/au):

     atom    1 type  1   force =     0.00813485    0.00813485    0.00813485
     atom    2 type  1   force =    -0.00813485   -0.00813485   -0.00813485

     Total force =     0.019926     Total SCF correction =     0.000001

     Computing stress (Cartesian axis) and pressure

          total   stress  (Ry/bohr**3)                   (kbar)     P=       77.90
   0.00052957  -0.00002536  -0.00002536           77.90       -3.73       -3.73
  -0.00002536   0.00052957  -0.00002536           -3.73       77.90       -3.73
  -0.00002536  -0.00002536   0.00052957           -3.73       -3.73       77.90

     BFGS Geometry Optimization
     Energy error            =      0.0E+00 Ry
     Gradient error          =      8.1E-03 Ry/Bohr

     number of scf cycles    =   1
     number of bfgs steps    =   0

     energy             new  =     -23.0557575433 Ry

     new trust radius        =       0.0140899731 bohr
     new conv_thr            =       0.0000000100 Ry

ATOMIC_POSITIONS (alat)
C             0.0012181566        0.0012181566        0.0012181566
C             0.2487818434        0.2487818434        0.2487818434

     Writing config-only to output data dir ./Diamond.save/
     NEW-OLD atomic charge density approx. for the potential

[...]

     Energy error            =      7.4E-05 Ry
     Gradient error          =      5.2E-03 Ry/Bohr

     number of scf cycles    =   2
     number of bfgs steps    =   1

     energy             old  =     -23.0557575433 Ry
     energy             new  =     -23.0558316708 Ry

     CASE: energy            _new < energy            _old

     new trust radius        =       0.0055087029 bohr
     new conv_thr            =            1.0E-10 Ry

ATOMIC_POSITIONS (alat)
C             0.0007418986        0.0007418986        0.0007418986
C             0.2492581014        0.2492581014        0.2492581014

     Writing config-only to output data dir ./Diamond.save/
     NEW-OLD atomic charge density approx. for the potential

     Self-consistent Calculation

[...]

     Threshold (ethr) on eigenvalues was too large:
     Diagonalizing with lowered threshold

     CG style diagonalization
     ethr =  8.07E-08,  avg # of iterations =  2.5

[...]

     total energy              =     -23.05588049 Ry
     estimated scf accuracy    <          5.4E-09 Ry

     iteration #  4     ecut=    40.00 Ry     beta= 0.70
     CG style diagonalization
     ethr =  6.80E-11,  avg # of iterations =  3.8

     End of self-consistent calculation

[...]

          k = 0.1677 0.5030 0.8384 (   312 PWs)   bands (ev):

[...]

          k =-0.8384-0.1677 0.5030 (   312 PWs)   bands (ev):

    -0.0843   1.8851   5.8884   7.7165

     highest occupied level (ev):    13.9339

!    total energy              =     -23.05588049 Ry
     estimated scf accuracy    <          5.0E-11 Ry

     The total energy is the sum of the following terms:
     one-electron contribution =       8.46081281 Ry
     hartree contribution      =       1.87349598 Ry
     xc contribution           =      -7.42162879 Ry
     ewald contribution        =     -25.96856048 Ry

     convergence has been achieved in   4 iterations

     Forces acting on atoms (cartesian axes, Ry/au):

     atom    1 type  1   force =     0.00008853    0.00008853    0.00008853
     atom    2 type  1   force =    -0.00008853   -0.00008853   -0.00008853

     Total force =     0.000217     Total SCF correction =     0.000003

     Computing stress (Cartesian axis) and pressure

          total   stress  (Ry/bohr**3)                   (kbar)     P=       77.68
   0.00052807  -0.00000025  -0.00000025           77.68       -0.04       -0.04
  -0.00000025   0.00052807  -0.00000025           -0.04       77.68       -0.04
  -0.00000025  -0.00000025   0.00052807           -0.04       -0.04       77.68

     Energy error            =      4.9E-05 Ry
     Gradient error          =      8.9E-05 Ry/Bohr

     bfgs converged in   3 scf cycles and   2 bfgs steps
     (criteria: energy <  1.0E-04 Ry, force <  1.0E-03 Ry/Bohr)

     End of BFGS Geometry Optimization

     Final energy             =     -23.0558804926 Ry

     File ./Diamond.bfgs deleted, as requested
Begin final coordinates

ATOMIC_POSITIONS (alat)
C             0.0007418986        0.0007418986        0.0007418986
C             0.2492581014        0.2492581014        0.2492581014
End final coordinates

     Writing all to output data dir ./Diamond.save/

     General routines

     Parallel routines

   This run was terminated on:  19: 5: 9  14Mar2022

   JOB DONE.