     Program PWSCF v.7.0 starts on 20Feb2022 at 17:55:37

     Waiting for input...
     Reading input from standard input

     Current dimensions of program PWSCF are:
     Max number of different atomic species (ntypx) = 10
     Max number of k-points (npk) =  40000
     Max angular momentum in pseudopotentials (lmaxx) =  4

     Subspace diagonalization in iterative solution of the eigenvalue problem:
     a serial algorithm will be used

     Using Slab Decomposition

     bravais-lattice index     =            2
     lattice parameter (alat)  =       8.9724  a.u.
     unit-cell volume          =     180.5784 (a.u.)^3
     number of atoms/cell      =            2
     number of atomic types    =            2
     number of electrons       =         8.00
     number of Kohn-Sham states=            4
     kinetic-energy cutoff     =      40.0000  Ry
     charge density cutoff     =     480.0000  Ry
     scf convergence threshold =      1.0E-08
     mixing beta               =       0.7000
     number of iterations used =            8  plain     mixing
     energy convergence thresh.=      1.0E-04
     force convergence thresh. =      1.0E-03
     press convergence thresh. =      5.0E-01
     Exchange-correlation= SLA  PW   PBE  PBE
                           (   1   4   3   4   0   0   0)
     nstep                     =           50

     celldm(1)=   8.972400  celldm(2)=   0.000000  celldm(3)=   0.000000
     celldm(4)=   0.000000  celldm(5)=   0.000000  celldm(6)=   0.000000

     crystal axes: (cart. coord. in units of alat)
               a(1) = (  -0.500000   0.000000   0.500000 )
               a(2) = (   0.000000   0.500000   0.500000 )
               a(3) = (  -0.500000   0.500000   0.000000 )

     reciprocal axes: (cart. coord. in units 2 pi/alat)
               b(1) = ( -1.000000 -1.000000  1.000000 )
               b(2) = (  1.000000  1.000000  1.000000 )
               b(3) = ( -1.000000  1.000000 -1.000000 )

     PseudoPot. # 1 for B  read from file:
     ../pseudo_dir/B_PBE.UPF
     MD5 check sum: cc6de2960df11db49a60e589f9ebb39b
     Pseudo is Ultrasoft + core correction, Zval =  3.0
     Generated by new atomic code, or converted to UPF format
     Using radial grid of  781 points,  4 beta functions with:
                l(1) =   0
                l(2) =   0
                l(3) =   1
                l(4) =   1
     Q(r) pseudized with  8 coefficients,  rinner =    1.100   1.100   1.100

     PseudoPot. # 2 for As read from file:
     ../pseudo_dir/As_PBE.UPF
     MD5 check sum: a55e54db9b6ff5e275ac1f228f32106c
     Pseudo is Ultrasoft + core correction, Zval =  5.0
     Generated by new atomic code, or converted to UPF format
     Using radial grid of  875 points,  6 beta functions with:
                l(1) =   0
                l(2) =   0
                l(3) =   1
                l(4) =   1
                l(5) =   2
                l(6) =   2
     Q(r) pseudized with  8 coefficients,  rinner =    1.300   1.300   1.300
                                                       1.300   1.300

     atomic species   valence    mass     pseudopotential
        B              3.00    10.81100     B ( 1.00)
        As             5.00    74.92160     As( 1.00)

     24 Sym. Ops. (no inversion) found

   Cartesian axes

     site n.     atom                  positions (alat units)
         1           B   tau(   1) = (   0.0000000   0.0000000   0.0000000  )
         2           As  tau(   2) = (  -0.2500000   0.2500000   0.2500000  )

     number of k points=    29
                       cart. coord. in units 2pi/alat
        k(    1) = (   0.0000000   0.0000000   0.0000000), wk =   0.0039062
        k(    2) = (  -0.1250000   0.1250000  -0.1250000), wk =   0.0312500
        k(    3) = (  -0.2500000   0.2500000  -0.2500000), wk =   0.0312500
        k(    4) = (  -0.3750000   0.3750000  -0.3750000), wk =   0.0312500
        k(    5) = (   0.5000000  -0.5000000   0.5000000), wk =   0.0156250
        k(    6) = (   0.0000000   0.2500000   0.0000000), wk =   0.0234375
        k(    7) = (  -0.1250000   0.3750000  -0.1250000), wk =   0.0937500
        k(    8) = (  -0.2500000   0.5000000  -0.2500000), wk =   0.0937500
        k(    9) = (   0.6250000  -0.3750000   0.6250000), wk =   0.0937500
        k(   10) = (   0.5000000  -0.2500000   0.5000000), wk =   0.0937500
        k(   11) = (   0.3750000  -0.1250000   0.3750000), wk =   0.0937500
        k(   12) = (   0.2500000   0.0000000   0.2500000), wk =   0.0468750
        k(   13) = (   0.0000000   0.5000000   0.0000000), wk =   0.0234375
        k(   14) = (  -0.1250000   0.6250000  -0.1250000), wk =   0.0937500
        k(   15) = (   0.7500000  -0.2500000   0.7500000), wk =   0.0937500
        k(   16) = (   0.6250000  -0.1250000   0.6250000), wk =   0.0937500
        k(   17) = (   0.5000000   0.0000000   0.5000000), wk =   0.0468750
        k(   18) = (   0.0000000   0.7500000   0.0000000), wk =   0.0234375
        k(   19) = (   0.8750000  -0.1250000   0.8750000), wk =   0.0937500
        k(   20) = (   0.7500000   0.0000000   0.7500000), wk =   0.0468750
        k(   21) = (   0.0000000  -1.0000000   0.0000000), wk =   0.0117188
        k(   22) = (  -0.2500000   0.5000000   0.0000000), wk =   0.0937500
        k(   23) = (   0.6250000  -0.3750000   0.8750000), wk =   0.1875000
        k(   24) = (   0.5000000  -0.2500000   0.7500000), wk =   0.0937500
        k(   25) = (   0.7500000  -0.2500000   1.0000000), wk =   0.0937500
        k(   26) = (   0.6250000  -0.1250000   0.8750000), wk =   0.1875000
        k(   27) = (   0.5000000   0.0000000   0.7500000), wk =   0.0937500
        k(   28) = (  -0.2500000  -1.0000000   0.0000000), wk =   0.0468750
        k(   29) = (  -0.5000000  -1.0000000   0.0000000), wk =   0.0234375

     Initial potential from superposition of free atoms

     starting charge       7.9995, renormalised to       8.0000
     Starting wfcs are    8 randomized atomic wfcs

     Self-consistent Calculation

     iteration #  1     ecut=    40.00 Ry     beta= 0.70
     CG style diagonalization
     ethr =  1.00E-02,  avg # of iterations =  2.6

     total energy              =     -46.62597806 Ry
     estimated scf accuracy    <       0.14707201 Ry

[...]

     End of self-consistent calculation

          k = 0.0000 0.0000 0.0000 (   749 PWs)   bands (ev):

    -6.6681   8.8976   8.8976   8.8976

          k =-0.1250 0.1250-0.1250 (   779 PWs)   bands (ev):

[...]

     highest occupied level (ev):     8.8976

!    total energy              =     -46.66520168 Ry
     estimated scf accuracy    <          2.1E-09 Ry

     The total energy is the sum of the following terms:
     one-electron contribution =       6.79136558 Ry
     hartree contribution      =       1.23578751 Ry
     xc contribution           =     -34.63714216 Ry
     ewald contribution        =     -20.05521261 Ry

     convergence has been achieved in   8 iterations

     Forces acting on atoms (cartesian axes, Ry/au):

     atom    1 type  1   force =     0.00000000    0.00000000    0.00000000
     atom    2 type  2   force =     0.00000000    0.00000000   -0.00000000

     Total force =     0.000000     Total SCF correction =     0.000000

     Computing stress (Cartesian axis) and pressure

          total   stress  (Ry/bohr**3)                   (kbar)     P=       64.92
   0.00044134  -0.00000000   0.00000000           64.92       -0.00        0.00
  -0.00000000   0.00044134  -0.00000000           -0.00       64.92       -0.00
   0.00000000  -0.00000000   0.00044134            0.00       -0.00       64.92

     BFGS Geometry Optimization
     Energy error            =      0.0E+00 Ry
     Gradient error          =      1.2E-32 Ry/Bohr
     Cell gradient error     =      6.5E+01 kbar

     number of scf cycles    =   1
     number of bfgs steps    =   0

     enthalpy           new  =     -46.6650789241 Ry

     new trust radius        =       0.0296079574 bohr
     new conv_thr            =       0.0000000100 Ry

     new unit-cell volume =    186.61248 a.u.^3 (    27.65312 Ang^3 )
     density =      5.14815 g/cm^3

CELL_PARAMETERS (alat=  8.97240000)
  -0.505508274  -0.000000000   0.505508274
  -0.000000000   0.505508274   0.505508274
  -0.505508274   0.505508274  -0.000000000

ATOMIC_POSITIONS (crystal)
B            -0.0000000000        0.0000000000       -0.0000000000
As            0.2500000000        0.2500000000        0.2500000000

     Writing config-only to output data dir ./pbe_1.save/
     NEW-OLD atomic charge density approx. for the potential
     extrapolated charge    8.25866, renormalised to    8.00000

[...]

     Energy error            =      1.6E-03 Ry
     Gradient error          =      6.5E-32 Ry/Bohr
     Cell gradient error     =      1.6E+01 kbar

[...]

     enthalpy           old  =     -46.6650789241 Ry
     enthalpy           new  =     -46.6667094061 Ry

     CASE: enthalpy          _new < enthalpy          _old

[...]

     number of scf cycles    =   3
     number of bfgs steps    =   2

     enthalpy           old  =     -46.6667094061 Ry
     enthalpy           new  =     -46.6668279387 Ry

     CASE: enthalpy          _new < enthalpy          _old

     new trust radius        =       0.0007042251 bohr
     new conv_thr            =            1.0E-10 Ry

     new unit-cell volume =    188.82175 a.u.^3 (    27.98050 Ang^3 )
     density =      5.08791 g/cm^3

[...]

ATOMIC_POSITIONS (crystal)
B            -0.0000000000       -0.0000000000        0.0000000000
As            0.2500000000        0.2500000000        0.2500000000

     Writing config-only to output data dir ./pbe_1.save/
     NEW-OLD atomic charge density approx. for the potential
     extrapolated charge    8.00615, renormalised to    8.00000

[...]

     Threshold (ethr) on eigenvalues was too large:
     Diagonalizing with lowered threshold

     CG style diagonalization
     ethr =  3.08E-09,  avg # of iterations =  3.4

[...]

     Energy error            =      5.2E-07 Ry
     Gradient error          =      4.9E-32 Ry/Bohr
     Cell gradient error     =      2.0E-02 kbar

     bfgs converged in   4 scf cycles and   3 bfgs steps
     (criteria: energy <  1.0E-04 Ry, force <  1.0E-03Ry/Bohr, cell <  5.0E-01kbar)

     End of BFGS Geometry Optimization

     Final enthalpy           =     -46.6668284620 Ry

     File ./pbe_1.bfgs deleted, as requested
Begin final coordinates
     new unit-cell volume =    188.82175 a.u.^3 (    27.98050 Ang^3 )
     density =      5.08791 g/cm^3

CELL_PARAMETERS (alat=  8.97240000)
  -0.507495326  -0.000000000   0.507495326
  -0.000000000   0.507495326   0.507495326
  -0.507495326   0.507495326  -0.000000000

ATOMIC_POSITIONS (crystal)
B            -0.0000000000       -0.0000000000        0.0000000000
As            0.2500000000        0.2500000000        0.2500000000
End final coordinates

     Writing config-only to output data dir ./pbe_1.save/

     Final scf calculation at the relaxed structure.
     The G-vectors are recalculated for the final unit cell
     Results may differ from those at the preceding step.

     Using Slab Decomposition

     bravais-lattice index     =            2
     lattice parameter (alat)  =       8.9724  a.u.
     unit-cell volume          =     188.8217 (a.u.)^3
     number of atoms/cell      =            2
     number of atomic types    =            2
     number of electrons       =         8.00
     number of Kohn-Sham states=            4
     kinetic-energy cutoff     =      40.0000  Ry
     charge density cutoff     =     480.0000  Ry
     scf convergence threshold =      1.0E-10
     mixing beta               =       0.7000
     number of iterations used =            8  plain     mixing
     press convergence thresh. =      5.0E-01
     Exchange-correlation= SLA  PW   PBE  PBE
                           (   1   4   3   4   0   0   0)

     celldm(1)=   8.972400  celldm(2)=   0.000000  celldm(3)=   0.000000
     celldm(4)=   0.000000  celldm(5)=   0.000000  celldm(6)=   0.000000

     crystal axes: (cart. coord. in units of alat)
               a(1) = (  -0.507495  -0.000000   0.507495 )
               a(2) = (  -0.000000   0.507495   0.507495 )
               a(3) = (  -0.507495   0.507495  -0.000000 )

     reciprocal axes: (cart. coord. in units 2 pi/alat)
               b(1) = ( -0.985231 -0.985231  0.985231 )
               b(2) = (  0.985231  0.985231  0.985231 )
               b(3) = ( -0.985231  0.985231 -0.985231 )

     PseudoPot. # 1 for B  read from file:
     ../pseudo_dir/B_PBE.UPF
     MD5 check sum: cc6de2960df11db49a60e589f9ebb39b
     Pseudo is Ultrasoft + core correction, Zval =  3.0
     Generated by new atomic code, or converted to UPF format
     Using radial grid of  781 points,  4 beta functions with:
                l(1) =   0
                l(2) =   0
                l(3) =   1
                l(4) =   1
     Q(r) pseudized with  8 coefficients,  rinner =    1.100   1.100   1.100

     PseudoPot. # 2 for As read from file:
     ../pseudo_dir/As_PBE.UPF
     MD5 check sum: a55e54db9b6ff5e275ac1f228f32106c
     Pseudo is Ultrasoft + core correction, Zval =  5.0
     Generated by new atomic code, or converted to UPF format
     Using radial grid of  875 points,  6 beta functions with:
                l(1) =   0
                l(2) =   0
                l(3) =   1
                l(4) =   1
                l(5) =   2
                l(6) =   2
     Q(r) pseudized with  8 coefficients,  rinner =    1.300   1.300   1.300
                                                       1.300   1.300

     atomic species   valence    mass     pseudopotential
        B              3.00    10.81100     B ( 1.00)
        As             5.00    74.92160     As( 1.00)

     24 Sym. Ops. (no inversion) found

   Cartesian axes

     site n.     atom                  positions (alat units)
         1           B   tau(   1) = (  -0.0000000   0.0000000  -0.0000000  )
         2           As  tau(   2) = (  -0.2537477   0.2537477   0.2537477  )

     number of k points=    29
                       cart. coord. in units 2pi/alat
        k(    1) = (   0.0000000   0.0000000   0.0000000), wk =   0.0039062
        k(    2) = (  -0.1231538   0.1231538  -0.1231538), wk =   0.0312500
        k(    3) = (  -0.2463077   0.2463077  -0.2463077), wk =   0.0312500
        k(    4) = (  -0.3694615   0.3694615  -0.3694615), wk =   0.0312500
        k(    5) = (   0.4926154  -0.4926154   0.4926154), wk =   0.0156250
        k(    6) = (   0.0000000   0.2463077   0.0000000), wk =   0.0234375
        k(    7) = (  -0.1231538   0.3694615  -0.1231538), wk =   0.0937500
        k(    8) = (  -0.2463077   0.4926154  -0.2463077), wk =   0.0937500
        k(    9) = (   0.6157692  -0.3694615   0.6157692), wk =   0.0937500
        k(   10) = (   0.4926154  -0.2463077   0.4926154), wk =   0.0937500
        k(   11) = (   0.3694615  -0.1231538   0.3694615), wk =   0.0937500
        k(   12) = (   0.2463077  -0.0000000   0.2463077), wk =   0.0468750
        k(   13) = (   0.0000000   0.4926154   0.0000000), wk =   0.0234375
        k(   14) = (  -0.1231538   0.6157692  -0.1231538), wk =   0.0937500
        k(   15) = (   0.7389231  -0.2463077   0.7389231), wk =   0.0937500
        k(   16) = (   0.6157692  -0.1231538   0.6157692), wk =   0.0937500
        k(   17) = (   0.4926154  -0.0000000   0.4926154), wk =   0.0468750
        k(   18) = (  -0.0000000   0.7389231  -0.0000000), wk =   0.0234375
        k(   19) = (   0.8620769  -0.1231538   0.8620769), wk =   0.0937500
        k(   20) = (   0.7389231  -0.0000000   0.7389231), wk =   0.0468750
        k(   21) = (   0.0000000  -0.9852307   0.0000000), wk =   0.0117188
        k(   22) = (  -0.2463077   0.4926154  -0.0000000), wk =   0.0937500
        k(   23) = (   0.6157692  -0.3694615   0.8620769), wk =   0.1875000
        k(   24) = (   0.4926154  -0.2463077   0.7389231), wk =   0.0937500
        k(   25) = (   0.7389231  -0.2463077   0.9852307), wk =   0.0937500
        k(   26) = (   0.6157692  -0.1231538   0.8620769), wk =   0.1875000
        k(   27) = (   0.4926154  -0.0000000   0.7389231), wk =   0.0937500
        k(   28) = (  -0.2463077  -0.9852307   0.0000000), wk =   0.0468750
        k(   29) = (  -0.4926154  -0.9852307   0.0000000), wk =   0.0234375

     Initial potential from superposition of free atoms

     starting charge       7.9995, renormalised to       8.0000
     Starting wfcs are    8 randomized atomic wfcs

     Self-consistent Calculation

[...]

     total energy              =     -46.66698878 Ry
     estimated scf accuracy    <          8.9E-10 Ry

     iteration #  8     ecut=    40.00 Ry     beta= 0.70
     CG style diagonalization
     ethr =  1.11E-11,  avg # of iterations =  4.6

     End of self-consistent calculation

[...]

          k = 0.4926-0.0000 0.7389 (   805 PWs)   bands (ev):

[...]

          k =-0.4926-0.9852 0.0000 (   792 PWs)   bands (ev):

    -2.6667   0.3600   2.9732   3.2534

     highest occupied level (ev):     8.2967

!    total energy              =     -46.66698878 Ry
     estimated scf accuracy    <          3.2E-11 Ry

     The total energy is the sum of the following terms:
     one-electron contribution =       6.39014058 Ry
     hartree contribution      =       1.27513287 Ry
     xc contribution           =     -34.57325011 Ry
     ewald contribution        =     -19.75901212 Ry

     convergence has been achieved in   8 iterations

     Forces acting on atoms (cartesian axes, Ry/au):

     atom    1 type  1   force =    -0.00000000   -0.00000000    0.00000000
     atom    2 type  2   force =    -0.00000000   -0.00000000    0.00000000

     Total force =     0.000000     Total SCF correction =     0.000000

     Computing stress (Cartesian axis) and pressure

          total   stress  (Ry/bohr**3)                   (kbar)     P=        0.26
   0.00000179  -0.00000000   0.00000000            0.26       -0.00        0.00
   0.00000000   0.00000179   0.00000000            0.00        0.26        0.00
  -0.00000000   0.00000000   0.00000179           -0.00        0.00        0.26

     Writing all to output data dir ./pbe_1.save/

     General routines

     Parallel routines

   This run was terminated on:  17:57:37  20Feb2022

   JOB DONE.