     Program PWSCF v.7.0 starts on  8Mar2022 at 15:22:20

     Waiting for input...
     Reading input from standard input
Warning: card &CELL ignored
Warning: card  CELL_DYNAMICS = 'BFGS', ignored
Warning: card  PRESS=0.1D0, ignored
Warning: card / ignored

     Current dimensions of program PWSCF are:
     Max number of different atomic species (ntypx) = 10
     Max number of k-points (npk) =  40000
     Max angular momentum in pseudopotentials (lmaxx) =  4
     Message from routine setup:
     using ibrav=0 with symmetry is DISCOURAGED, use correct ibrav instead

     Subspace diagonalization in iterative solution of the eigenvalue problem:
     a serial algorithm will be used

     Using Slab Decomposition

     bravais-lattice index     =            0
     lattice parameter (alat)  =      10.1941  a.u.
     unit-cell volume          =     261.6765 (a.u.)^3
     number of atoms/cell      =            2
     number of atomic types    =            1
     number of electrons       =         8.00
     number of Kohn-Sham states=            8
     kinetic-energy cutoff     =      30.0000  Ry
     charge density cutoff     =     300.0000  Ry
     scf convergence threshold =      1.0E-08
     mixing beta               =       0.7000
     number of iterations used =            8  plain     mixing
     Exchange-correlation= SLA  PZ   NOGX NOGC
                           (   1   1   0   0   0   0   0)

     celldm(1)=  10.194100  celldm(2)=   0.000000  celldm(3)=   0.000000
     celldm(4)=   0.000000  celldm(5)=   0.000000  celldm(6)=   0.000000

     crystal axes: (cart. coord. in units of alat)
               a(1) = (  -0.498000   0.000000   0.498000 )
               a(2) = (   0.000000   0.498000   0.498000 )
               a(3) = (  -0.498000   0.498000   0.000000 )

     reciprocal axes: (cart. coord. in units 2 pi/alat)
               b(1) = ( -1.004016 -1.004016  1.004016 )
               b(2) = (  1.004016  1.004016  1.004016 )
               b(3) = ( -1.004016  1.004016 -1.004016 )

     PseudoPot. # 1 for Si read from file:
     ./Si_LDA.UPF
     MD5 check sum: b5ade7b37ee992b02096e360e546dc2d
     Pseudo is Ultrasoft + core correction, Zval =  4.0
     Generated by new atomic code, or converted to UPF format
     Using radial grid of  899 points,  6 beta functions with:
                l(1) =   0
                l(2) =   0
                l(3) =   1
                l(4) =   1
                l(5) =   2
                l(6) =   2
     Q(r) pseudized with  8 coefficients,  rinner =    0.900   0.900   0.900
                                                       0.900   0.900

     atomic species   valence    mass     pseudopotential
        Si             4.00    28.08550     Si( 1.00)

     48 Sym. Ops., with inversion, found (24 have fractional translation)

   Cartesian axes

     site n.     atom                  positions (alat units)
         1           Si  tau(   1) = (   0.0000000   0.0000000   0.0000000  )
         2           Si  tau(   2) = (  -0.2490000   0.2490000   0.2490000  )

     number of k points=    29
                       cart. coord. in units 2pi/alat
        k(    1) = (   0.0000000   0.0000000   0.0000000), wk =   0.0039062
        k(    2) = (  -0.1255020   0.1255020  -0.1255020), wk =   0.0312500
        k(    3) = (  -0.2510040   0.2510040  -0.2510040), wk =   0.0312500
        k(    4) = (  -0.3765060   0.3765060  -0.3765060), wk =   0.0312500
        k(    5) = (   0.5020080  -0.5020080   0.5020080), wk =   0.0156250
        k(    6) = (   0.0000000   0.2510040   0.0000000), wk =   0.0234375
        k(    7) = (  -0.1255020   0.3765060  -0.1255020), wk =   0.0937500
        k(    8) = (  -0.2510040   0.5020080  -0.2510040), wk =   0.0937500
        k(    9) = (   0.6275100  -0.3765060   0.6275100), wk =   0.0937500
        k(   10) = (   0.5020080  -0.2510040   0.5020080), wk =   0.0937500
        k(   11) = (   0.3765060  -0.1255020   0.3765060), wk =   0.0937500
        k(   12) = (   0.2510040   0.0000000   0.2510040), wk =   0.0468750
        k(   13) = (   0.0000000   0.5020080   0.0000000), wk =   0.0234375
        k(   14) = (  -0.1255020   0.6275100  -0.1255020), wk =   0.0937500
        k(   15) = (   0.7530120  -0.2510040   0.7530120), wk =   0.0937500
        k(   16) = (   0.6275100  -0.1255020   0.6275100), wk =   0.0937500
        k(   17) = (   0.5020080   0.0000000   0.5020080), wk =   0.0468750
        k(   18) = (   0.0000000   0.7530120   0.0000000), wk =   0.0234375
        k(   19) = (   0.8785141  -0.1255020   0.8785141), wk =   0.0937500
        k(   20) = (   0.7530120   0.0000000   0.7530120), wk =   0.0468750
        k(   21) = (   0.0000000  -1.0040161   0.0000000), wk =   0.0117188
        k(   22) = (  -0.2510040   0.5020080   0.0000000), wk =   0.0937500
        k(   23) = (   0.6275100  -0.3765060   0.8785141), wk =   0.1875000
        k(   24) = (   0.5020080  -0.2510040   0.7530120), wk =   0.0937500
        k(   25) = (   0.7530120  -0.2510040   1.0040161), wk =   0.0937500
        k(   26) = (   0.6275100  -0.1255020   0.8785141), wk =   0.1875000
        k(   27) = (   0.5020080   0.0000000   0.7530120), wk =   0.0937500
        k(   28) = (  -0.2510040  -1.0040161   0.0000000), wk =   0.0468750
        k(   29) = (  -0.5020080  -1.0040161   0.0000000), wk =   0.0234375

     Initial potential from superposition of free atoms

     starting charge       7.9988, renormalised to       8.0000
     Starting wfcs are    8 randomized atomic wfcs

     Self-consistent Calculation

     iteration #  1     ecut=    30.00 Ry     beta= 0.70
     CG style diagonalization
     ethr =  1.00E-02,  avg # of iterations =  3.6

     Threshold (ethr) on eigenvalues was too large:
     Diagonalizing with lowered threshold

     CG style diagonalization
     ethr =  7.51E-04,  avg # of iterations =  2.0

     total energy              =     -19.25620089 Ry
     estimated scf accuracy    <       0.06097011 Ry

[...]

     total energy              =     -19.26002184 Ry
     estimated scf accuracy    <       0.00000021 Ry

     iteration #  5     ecut=    30.00 Ry     beta= 0.70
     CG style diagonalization
     ethr =  2.61E-09,  avg # of iterations =  4.1

     End of self-consistent calculation

          k = 0.0000 0.0000 0.0000 (   725 PWs)   bands (ev):

    -5.8383   6.3480   6.3480   6.3480   8.8888   8.8888   8.8888   9.9001

          k =-0.1255 0.1255-0.1255 (   724 PWs)   bands (ev):

[...]

          k = 0.5020 0.0000 0.7530 (   726 PWs)   bands (ev):

[...]

          k =-0.5020-1.0040 0.0000 (   724 PWs)   bands (ev):

    -1.3968  -1.3968   2.3322   2.3322  10.5356  10.5356  11.3856  11.3856

     highest occupied, lowest unoccupied level (ev):     6.3480    6.8167

!    total energy              =     -19.26002240 Ry
     estimated scf accuracy    <          8.2E-10 Ry

     The total energy is the sum of the following terms:
     one-electron contribution =       5.29040032 Ry
     hartree contribution      =       1.08761472 Ry
     xc contribution           =      -8.66058806 Ry
     ewald contribution        =     -16.97744938 Ry

     convergence has been achieved in   5 iterations

     Forces acting on atoms (cartesian axes, Ry/au):

     atom    1 type  1   force =     0.00000000    0.00000000    0.00000000
     atom    2 type  1   force =    -0.00000000   -0.00000000   -0.00000000

     Total force =     0.000000     Total SCF correction =     0.000000

     Computing stress (Cartesian axis) and pressure

          total   stress  (Ry/bohr**3)                   (kbar)     P=       15.34
   0.00010428   0.00000000  -0.00000000           15.34        0.00       -0.00
   0.00000000   0.00010428  -0.00000000            0.00       15.34       -0.00
  -0.00000000  -0.00000000   0.00010428           -0.00       -0.00       15.34

     Writing all to output data dir ./Si_elastic.save/

     General routines

     Parallel routines

   This run was terminated on:  15:22:33   8Mar2022

   JOB DONE.