     Program PWSCF v.7.0 starts on 14Mar2022 at 16:51: 8

     Waiting for input...
     Reading input from standard input
Warning: card &CELL ignored
Warning: card  CELL_DYNAMICS = 'BFGS', ignored
Warning: card  PRESS=0.1D0, ignored
Warning: card / ignored

     Current dimensions of program PWSCF are:
     Max number of different atomic species (ntypx) = 10
     Max number of k-points (npk) =  40000
     Max angular momentum in pseudopotentials (lmaxx) =  4
     Message from routine setup:
     using ibrav=0 with symmetry is DISCOURAGED, use correct ibrav instead

     Subspace diagonalization in iterative solution of the eigenvalue problem:
     a serial algorithm will be used

     Using Slab Decomposition

     bravais-lattice index     =            0
     lattice parameter (alat)  =      10.2050  a.u.
     unit-cell volume          =     264.1014 (a.u.)^3
     number of atoms/cell      =            2
     number of atomic types    =            1
     number of electrons       =         8.00
     number of Kohn-Sham states=            4
     kinetic-energy cutoff     =      30.0000  Ry
     charge density cutoff     =     300.0000  Ry
     scf convergence threshold =      1.0E-08
     mixing beta               =       0.7000
     number of iterations used =            8  plain     mixing
     energy convergence thresh.=      1.0E-04
     force convergence thresh. =      1.0E-03
     Exchange-correlation= SLA  PZ   NOGX NOGC
                           (   1   1   0   0   0   0   0)
     nstep                     =           50

     celldm(1)=  10.205000  celldm(2)=   0.000000  celldm(3)=   0.000000
     celldm(4)=   0.000000  celldm(5)=   0.000000  celldm(6)=   0.000000

     crystal axes: (cart. coord. in units of alat)
               a(1) = (  -0.499000   0.000000   0.499000 )
               a(2) = (   0.000000   0.499000   0.499000 )
               a(3) = (  -0.499000   0.499000   0.000000 )

     reciprocal axes: (cart. coord. in units 2 pi/alat)
               b(1) = ( -1.002004 -1.002004  1.002004 )
               b(2) = (  1.002004  1.002004  1.002004 )
               b(3) = ( -1.002004  1.002004 -1.002004 )

     PseudoPot. # 1 for Si read from file:
     ./Si_LDA.UPF
     MD5 check sum: b5ade7b37ee992b02096e360e546dc2d
     Pseudo is Ultrasoft + core correction, Zval =  4.0
     Generated by new atomic code, or converted to UPF format
     Using radial grid of  899 points,  6 beta functions with:
                l(1) =   0
                l(2) =   0
                l(3) =   1
                l(4) =   1
                l(5) =   2
                l(6) =   2
     Q(r) pseudized with  8 coefficients,  rinner =    0.900   0.900   0.900
                                                       0.900   0.900

     atomic species   valence    mass     pseudopotential
        Si             4.00    28.08550     Si( 1.00)

     48 Sym. Ops., with inversion, found (24 have fractional translation)

   Cartesian axes

     site n.     atom                  positions (alat units)
         1           Si  tau(   1) = (   0.0000000   0.0000000   0.0000000  )
         2           Si  tau(   2) = (  -0.2495000   0.2495000   0.2495000  )

     number of k points=    29
                       cart. coord. in units 2pi/alat
        k(    1) = (   0.0000000   0.0000000   0.0000000), wk =   0.0039062
        k(    2) = (  -0.1252505   0.1252505  -0.1252505), wk =   0.0312500
        k(    3) = (  -0.2505010   0.2505010  -0.2505010), wk =   0.0312500
        k(    4) = (  -0.3757515   0.3757515  -0.3757515), wk =   0.0312500
        k(    5) = (   0.5010020  -0.5010020   0.5010020), wk =   0.0156250
        k(    6) = (   0.0000000   0.2505010   0.0000000), wk =   0.0234375
        k(    7) = (  -0.1252505   0.3757515  -0.1252505), wk =   0.0937500
        k(    8) = (  -0.2505010   0.5010020  -0.2505010), wk =   0.0937500
        k(    9) = (   0.6262525  -0.3757515   0.6262525), wk =   0.0937500
        k(   10) = (   0.5010020  -0.2505010   0.5010020), wk =   0.0937500
        k(   11) = (   0.3757515  -0.1252505   0.3757515), wk =   0.0937500
        k(   12) = (   0.2505010   0.0000000   0.2505010), wk =   0.0468750
        k(   13) = (   0.0000000   0.5010020   0.0000000), wk =   0.0234375
        k(   14) = (  -0.1252505   0.6262525  -0.1252505), wk =   0.0937500
        k(   15) = (   0.7515030  -0.2505010   0.7515030), wk =   0.0937500
        k(   16) = (   0.6262525  -0.1252505   0.6262525), wk =   0.0937500
        k(   17) = (   0.5010020   0.0000000   0.5010020), wk =   0.0468750
        k(   18) = (   0.0000000   0.7515030   0.0000000), wk =   0.0234375
        k(   19) = (   0.8767535  -0.1252505   0.8767535), wk =   0.0937500
        k(   20) = (   0.7515030   0.0000000   0.7515030), wk =   0.0468750
        k(   21) = (   0.0000000  -1.0020040   0.0000000), wk =   0.0117188
        k(   22) = (  -0.2505010   0.5010020   0.0000000), wk =   0.0937500
        k(   23) = (   0.6262525  -0.3757515   0.8767535), wk =   0.1875000
        k(   24) = (   0.5010020  -0.2505010   0.7515030), wk =   0.0937500
        k(   25) = (   0.7515030  -0.2505010   1.0020040), wk =   0.0937500
        k(   26) = (   0.6262525  -0.1252505   0.8767535), wk =   0.1875000
        k(   27) = (   0.5010020   0.0000000   0.7515030), wk =   0.0937500
        k(   28) = (  -0.2505010  -1.0020040  -0.0000000), wk =   0.0468750
        k(   29) = (  -0.5010020  -1.0020040   0.0000000), wk =   0.0234375

     Initial potential from superposition of free atoms

     starting charge       7.9988, renormalised to       8.0000
     Starting wfcs are    8 randomized atomic wfcs

     Self-consistent Calculation

     iteration #  1     ecut=    30.00 Ry     beta= 0.70
     CG style diagonalization
     ethr =  1.00E-02,  avg # of iterations =  3.0

     Threshold (ethr) on eigenvalues was too large:
     Diagonalizing with lowered threshold

     CG style diagonalization
     ethr =  7.40E-04,  avg # of iterations =  2.0

     total energy              =     -19.25649063 Ry
     estimated scf accuracy    <       0.06003662 Ry

[...]

     total energy              =     -19.26019908 Ry
     estimated scf accuracy    <       0.00000005 Ry

     iteration #  6     ecut=    30.00 Ry     beta= 0.70
     CG style diagonalization
     ethr =  6.81E-10,  avg # of iterations =  5.7

     End of self-consistent calculation

          k = 0.0000 0.0000 0.0000 (   725 PWs)   bands (ev):

    -5.8722   6.2497   6.2497   6.2497

          k =-0.1253 0.1253-0.1253 (   728 PWs)   bands (ev):

[...]

          k = 0.5010 0.0000 0.7515 (   732 PWs)   bands (ev):

[...]

          k =-0.5010-1.0020 0.0000 (   724 PWs)   bands (ev):

    -1.4691  -1.4691   2.2737   2.2737

     highest occupied level (ev):     6.2497

!    total energy              =     -19.26019930 Ry
     estimated scf accuracy    <          2.9E-09 Ry

     The total energy is the sum of the following terms:
     one-electron contribution =       5.21869359 Ry
     hartree contribution      =       1.09545085 Ry
     xc contribution           =      -8.64901465 Ry
     ewald contribution        =     -16.92532909 Ry

     convergence has been achieved in   6 iterations

     Forces acting on atoms (cartesian axes, Ry/au):

     atom    1 type  1   force =    -0.00000000    0.00000000    0.00000000
     atom    2 type  1   force =    -0.00000000   -0.00000000   -0.00000000

     Total force =     0.000000     Total SCF correction =     0.000000

     Computing stress (Cartesian axis) and pressure

          total   stress  (Ry/bohr**3)                   (kbar)     P=        6.00
   0.00004078   0.00000000   0.00000000            6.00        0.00        0.00
   0.00000000   0.00004078  -0.00000000            0.00        6.00       -0.00
   0.00000000  -0.00000000   0.00004078            0.00       -0.00        6.00

     BFGS Geometry Optimization
     Energy error            =      0.0E+00 Ry
     Gradient error          =      4.1E-32 Ry/Bohr

     bfgs converged in   1 scf cycles and   0 bfgs steps
     (criteria: energy <  1.0E-04 Ry, force <  1.0E-03 Ry/Bohr)

     End of BFGS Geometry Optimization

     Final energy             =     -19.2601992988 Ry
Begin final coordinates

ATOMIC_POSITIONS (crystal)
Si            0.0000000000        0.0000000000        0.0000000000
Si            0.2500000000        0.2500000000        0.2500000000
End final coordinates

     Writing all to output data dir ./Si_elastic_isotropic.save/

     General routines

     Parallel routines

   This run was terminated on:  16:51:19  14Mar2022

   JOB DONE.