     Program PWSCF v.7.0 starts on 14Mar2022 at 15:40:58

     Waiting for input...
     Reading input from standard input
Warning: card &CELL ignored
Warning: card  CELL_DYNAMICS = 'BFGS', ignored
Warning: card  PRESS=0.1D0, ignored
Warning: card / ignored

     Current dimensions of program PWSCF are:
     Max number of different atomic species (ntypx) = 10
     Max number of k-points (npk) =  40000
     Max angular momentum in pseudopotentials (lmaxx) =  4
     Message from routine setup:
     using ibrav=0 with symmetry is DISCOURAGED, use correct ibrav instead

     Subspace diagonalization in iterative solution of the eigenvalue problem:
     a serial algorithm will be used

     Using Slab Decomposition

     bravais-lattice index     =            0
     lattice parameter (alat)  =      10.1900  a.u.
     unit-cell volume          =     264.5201 (a.u.)^3
     number of atoms/cell      =            2
     number of atomic types    =            1
     number of electrons       =         8.00
     number of Kohn-Sham states=            4
     kinetic-energy cutoff     =      50.0000  Ry
     charge density cutoff     =     600.0000  Ry
     scf convergence threshold =      1.0E-08
     mixing beta               =       0.7000
     number of iterations used =            8  plain     mixing
     energy convergence thresh.=      1.0E-04
     force convergence thresh. =      1.0E-03
     Exchange-correlation= SLA  PZ   NOGX NOGC
                           (   1   1   0   0   0   0   0)
     nstep                     =           50

     celldm(1)=  10.190000  celldm(2)=   0.000000  celldm(3)=   0.000000
     celldm(4)=   0.000000  celldm(5)=   0.000000  celldm(6)=   0.000000

     crystal axes: (cart. coord. in units of alat)
               a(1) = (  -0.500000  -0.001500   0.500000 )
               a(2) = (   0.001500   0.500000   0.500000 )
               a(3) = (  -0.498500   0.498500   0.000000 )

     reciprocal axes: (cart. coord. in units 2 pi/alat)
               b(1) = ( -0.997009 -0.997009  1.000000 )
               b(2) = (  0.997009  0.997009  1.000000 )
               b(3) = ( -1.003009  1.003009 -1.000000 )

     PseudoPot. # 1 for Si read from file:
     ./Si_LDA.UPF
     MD5 check sum: b5ade7b37ee992b02096e360e546dc2d
     Pseudo is Ultrasoft + core correction, Zval =  4.0
     Generated by new atomic code, or converted to UPF format
     Using radial grid of  899 points,  6 beta functions with:
                l(1) =   0
                l(2) =   0
                l(3) =   1
                l(4) =   1
                l(5) =   2
                l(6) =   2
     Q(r) pseudized with  8 coefficients,  rinner =    0.900   0.900   0.900
                                                       0.900   0.900

     atomic species   valence    mass     pseudopotential
        Si             4.00    28.08550     Si( 1.00)

      8 Sym. Ops., with inversion, found ( 4 have fractional translation)

   Cartesian axes

     site n.     atom                  positions (alat units)
         1           Si  tau(   1) = (   0.0000000   0.0000000   0.0000000  )
         2           Si  tau(   2) = (  -0.2492500   0.2492500   0.2500000  )

     number of k points=   171

     Number of k-points >= 100: set verbosity='high' to print them.

     Initial potential from superposition of free atoms

     starting charge       7.9988, renormalised to       8.0000
     Starting wfcs are    8 randomized atomic wfcs

     Self-consistent Calculation

     iteration #  1     ecut=    50.00 Ry     beta= 0.70
     CG style diagonalization
     ethr =  1.00E-02,  avg # of iterations =  3.0

     Threshold (ethr) on eigenvalues was too large:
     Diagonalizing with lowered threshold

     CG style diagonalization
     ethr =  7.40E-04,  avg # of iterations =  2.0

     total energy              =     -19.25687273 Ry
     estimated scf accuracy    <       0.05964302 Ry

[...]

     End of self-consistent calculation

     Number of k-points >= 100: set verbosity='high' to print the bands.

     highest occupied level (ev):     6.2385

!    total energy              =     -19.26053465 Ry
     estimated scf accuracy    <          5.3E-09 Ry

     The total energy is the sum of the following terms:
     one-electron contribution =       5.20617595 Ry
     hartree contribution      =       1.09609090 Ry
     xc contribution           =      -8.64652174 Ry
     ewald contribution        =     -16.91627976 Ry

     convergence has been achieved in   6 iterations

     Forces acting on atoms (cartesian axes, Ry/au):

     atom    1 type  1   force =     0.00000000    0.00000000   -0.00237588
     atom    2 type  1   force =    -0.00000000   -0.00000000    0.00237588

     Total force =     0.003360     Total SCF correction =     0.000000

     Computing stress (Cartesian axis) and pressure

          total   stress  (Ry/bohr**3)                   (kbar)     P=        4.37
   0.00002973  -0.00004355   0.00000000            4.37       -6.41        0.00
  -0.00004355   0.00002973  -0.00000000           -6.41        4.37       -0.00
   0.00000000  -0.00000000   0.00002964            0.00       -0.00        4.36

     BFGS Geometry Optimization
     Energy error            =      0.0E+00 Ry
     Gradient error          =      2.4E-03 Ry/Bohr

     number of scf cycles    =   1
     number of bfgs steps    =   0

     energy             new  =     -19.2605346508 Ry

     new trust radius        =       0.0023758802 bohr
     new conv_thr            =       0.0000000100 Ry

ATOMIC_POSITIONS (crystal)
Si           -0.0002331580       -0.0002331580        0.0002331580
Si            0.2502331580        0.2502331580        0.2497668420

     Writing config-only to output data dir ./Si_elastic_trigonal.save/
     NEW-OLD atomic charge density approx. for the potential

[...]

     CG style diagonalization
     ethr =  3.91E-09,  avg # of iterations =  4.7

[...]

     Total force =     0.001462     Total SCF correction =     0.000004

[...]

     Energy error            =      8.4E-06 Ry
     Gradient error          =      1.0E-03 Ry/Bohr

     number of scf cycles    =   2
     number of bfgs steps    =   1

     energy             old  =     -19.2605346508 Ry
     energy             new  =     -19.2605430503 Ry

     CASE: energy            _new < energy            _old

     new trust radius        =       0.0018299242 bohr
     new conv_thr            =            1.0E-10 Ry

ATOMIC_POSITIONS (crystal)
Si           -0.0004127384       -0.0004127384        0.0004127384
Si            0.2504127384        0.2504127384        0.2495872616

     Writing config-only to output data dir ./Si_elastic_trigonal.save/
     NEW-OLD atomic charge density approx. for the potential

     Self-consistent Calculation

[...]

     Threshold (ethr) on eigenvalues was too large:
     Diagonalizing with lowered threshold

     CG style diagonalization
     c_bands:  1 eigenvalues not converged
     c_bands:  1 eigenvalues not converged
     ethr =  1.15E-09,  avg # of iterations =  6.0

[...]

     total energy              =     -19.26054508 Ry
     estimated scf accuracy    <          1.1E-10 Ry

     iteration #  4     ecut=    50.00 Ry     beta= 0.70
     CG style diagonalization
     ethr =  1.41E-12,  avg # of iterations =  4.9

     End of self-consistent calculation

     Number of k-points >= 100: set verbosity='high' to print the bands.

     highest occupied level (ev):     6.2602

!    total energy              =     -19.26054508 Ry
     estimated scf accuracy    <          2.9E-12 Ry

     The total energy is the sum of the following terms:
     one-electron contribution =       5.20634113 Ry
     hartree contribution      =       1.09604095 Ry
     xc contribution           =      -8.64650890 Ry
     ewald contribution        =     -16.91641827 Ry

     convergence has been achieved in   4 iterations

     Forces acting on atoms (cartesian axes, Ry/au):

     atom    1 type  1   force =    -0.00000000   -0.00000000    0.00000393
     atom    2 type  1   force =     0.00000000    0.00000000   -0.00000393

     Total force =     0.000006     Total SCF correction =     0.000001
     SCF correction compared to forces is large: reduce conv_thr to get better values

     Computing stress (Cartesian axis) and pressure

          total   stress  (Ry/bohr**3)                   (kbar)     P=        4.35
   0.00002961  -0.00003096   0.00000000            4.36       -4.55        0.00
  -0.00003096   0.00002961  -0.00000000           -4.55        4.36       -0.00
  -0.00000000  -0.00000000   0.00002943           -0.00       -0.00        4.33

     Energy error            =      2.0E-06 Ry
     Gradient error          =      3.9E-06 Ry/Bohr

     bfgs converged in   3 scf cycles and   2 bfgs steps
     (criteria: energy <  1.0E-04 Ry, force <  1.0E-03 Ry/Bohr)

     End of BFGS Geometry Optimization

     Final energy             =     -19.2605450813 Ry

     File ./Si_elastic_trigonal.bfgs deleted, as requested
Begin final coordinates

ATOMIC_POSITIONS (crystal)
Si           -0.0004127384       -0.0004127384        0.0004127384
Si            0.2504127384        0.2504127384        0.2495872616
End final coordinates

     Writing all to output data dir ./Si_elastic_trigonal.save/

     General routines

     Parallel routines

   This run was terminated on:  15:44:45  14Mar2022

   JOB DONE.