     Program PWSCF v.7.0 starts on 14Mar2022 at 15:32: 8

     Waiting for input...
     Reading input from standard input
Warning: card &CELL ignored
Warning: card  CELL_DYNAMICS = 'BFGS', ignored
Warning: card  PRESS=0.1D0, ignored
Warning: card / ignored

     Current dimensions of program PWSCF are:
     Max number of different atomic species (ntypx) = 10
     Max number of k-points (npk) =  40000
     Max angular momentum in pseudopotentials (lmaxx) =  4
     Message from routine setup:
     using ibrav=0 with symmetry is DISCOURAGED, use correct ibrav instead

     Subspace diagonalization in iterative solution of the eigenvalue problem:
     a serial algorithm will be used

     Using Slab Decomposition

     bravais-lattice index     =            0
     lattice parameter (alat)  =      10.1900  a.u.
     unit-cell volume          =     264.5214 (a.u.)^3
     number of atoms/cell      =            2
     number of atomic types    =            1
     number of electrons       =         8.00
     number of Kohn-Sham states=            4
     kinetic-energy cutoff     =      50.0000  Ry
     charge density cutoff     =     600.0000  Ry
     scf convergence threshold =      1.0E-08
     mixing beta               =       0.7000
     number of iterations used =            8  plain     mixing
     energy convergence thresh.=      1.0E-04
     force convergence thresh. =      1.0E-03
     Exchange-correlation= SLA  PZ   NOGX NOGC
                           (   1   1   0   0   0   0   0)
     nstep                     =           50

     celldm(1)=  10.190000  celldm(2)=   0.000000  celldm(3)=   0.000000
     celldm(4)=   0.000000  celldm(5)=   0.000000  celldm(6)=   0.000000

     crystal axes: (cart. coord. in units of alat)
               a(1) = (  -0.500000   0.001000   0.500000 )
               a(2) = (  -0.001000   0.500000   0.500000 )
               a(3) = (  -0.501000   0.501000   0.000000 )

     reciprocal axes: (cart. coord. in units 2 pi/alat)
               b(1) = ( -1.002004 -1.002004  1.000000 )
               b(2) = (  1.002004  1.002004  1.000000 )
               b(3) = ( -0.998004  0.998004 -1.000000 )

     PseudoPot. # 1 for Si read from file:
     ./Si_LDA.UPF
     MD5 check sum: b5ade7b37ee992b02096e360e546dc2d
     Pseudo is Ultrasoft + core correction, Zval =  4.0
     Generated by new atomic code, or converted to UPF format
     Using radial grid of  899 points,  6 beta functions with:
                l(1) =   0
                l(2) =   0
                l(3) =   1
                l(4) =   1
                l(5) =   2
                l(6) =   2
     Q(r) pseudized with  8 coefficients,  rinner =    0.900   0.900   0.900
                                                       0.900   0.900

     atomic species   valence    mass     pseudopotential
        Si             4.00    28.08550     Si( 1.00)

      8 Sym. Ops., with inversion, found ( 4 have fractional translation)

   Cartesian axes

     site n.     atom                  positions (alat units)
         1           Si  tau(   1) = (   0.0000000   0.0000000   0.0000000  )
         2           Si  tau(   2) = (  -0.2505000   0.2505000   0.2500000  )

     number of k points=   171

     Number of k-points >= 100: set verbosity='high' to print them.

     Initial potential from superposition of free atoms

     starting charge       7.9988, renormalised to       8.0000
     Starting wfcs are    8 randomized atomic wfcs

     Self-consistent Calculation

     iteration #  1     ecut=    50.00 Ry     beta= 0.70
     CG style diagonalization
     ethr =  1.00E-02,  avg # of iterations =  3.0

     Threshold (ethr) on eigenvalues was too large:
     Diagonalizing with lowered threshold

     CG style diagonalization
     ethr =  7.40E-04,  avg # of iterations =  2.0

     total energy              =     -19.25689589 Ry
     estimated scf accuracy    <       0.05963744 Ry

[...]

     End of self-consistent calculation

     Number of k-points >= 100: set verbosity='high' to print the bands.

     highest occupied level (ev):     6.2360

!    total energy              =     -19.26055405 Ry
     estimated scf accuracy    <          5.1E-09 Ry

     The total energy is the sum of the following terms:
     one-electron contribution =       5.20621748 Ry
     hartree contribution      =       1.09605302 Ry
     xc contribution           =      -8.64650953 Ry
     ewald contribution        =     -16.91631502 Ry

     convergence has been achieved in   6 iterations

     Forces acting on atoms (cartesian axes, Ry/au):

     atom    1 type  1   force =     0.00000000    0.00000000    0.00158380
     atom    2 type  1   force =    -0.00000000   -0.00000000   -0.00158380

     Total force =     0.002240     Total SCF correction =     0.000001

     Computing stress (Cartesian axis) and pressure

          total   stress  (Ry/bohr**3)                   (kbar)     P=        4.35
   0.00002956   0.00002903  -0.00000000            4.35        4.27       -0.00
   0.00002903   0.00002956  -0.00000000            4.27        4.35       -0.00
  -0.00000000  -0.00000000   0.00002952           -0.00       -0.00        4.34

     BFGS Geometry Optimization
     Energy error            =      0.0E+00 Ry
     Gradient error          =      1.6E-03 Ry/Bohr

     number of scf cycles    =   1
     number of bfgs steps    =   0

     energy             new  =     -19.2605540535 Ry

     new trust radius        =       0.0015837977 bohr
     new conv_thr            =       0.0000000100 Ry

ATOMIC_POSITIONS (crystal)
Si            0.0001554267        0.0001554267       -0.0001554267
Si            0.2498445733        0.2498445733        0.2501554267

     Writing config-only to output data dir ./Si_elastic_trigonal.save/
     NEW-OLD atomic charge density approx. for the potential

     Self-consistent Calculation

[...]

     Threshold (ethr) on eigenvalues was too large:
     Diagonalizing with lowered threshold

     CG style diagonalization
     c_bands:  1 eigenvalues not converged
     c_bands:  1 eigenvalues not converged
     ethr =  9.04E-10,  avg # of iterations =  6.0

     total energy              =     -19.26055780 Ry
     estimated scf accuracy    <       0.00000009 Ry

     iteration #  2     ecut=    50.00 Ry     beta= 0.70
     CG style diagonalization
     ethr =  1.08E-09,  avg # of iterations =  3.0

     End of self-consistent calculation

     Number of k-points >= 100: set verbosity='high' to print the bands.

     highest occupied level (ev):     6.2441

!    total energy              =     -19.26055780 Ry
     estimated scf accuracy    <          4.7E-09 Ry

     The total energy is the sum of the following terms:
     one-electron contribution =       5.20625066 Ry
     hartree contribution      =       1.09605768 Ry
     xc contribution           =      -8.64651440 Ry
     ewald contribution        =     -16.91635175 Ry

     convergence has been achieved in   2 iterations

     Forces acting on atoms (cartesian axes, Ry/au):

     atom    1 type  1   force =    -0.00000000   -0.00000000    0.00069129
     atom    2 type  1   force =     0.00000000    0.00000000   -0.00069129

     Total force =     0.000978     Total SCF correction =     0.000006

     Computing stress (Cartesian axis) and pressure

          total   stress  (Ry/bohr**3)                   (kbar)     P=        4.35
   0.00002958   0.00002428  -0.00000000            4.35        3.57       -0.00
   0.00002428   0.00002958   0.00000000            3.57        4.35        0.00
   0.00000000  -0.00000000   0.00002953            0.00       -0.00        4.34

     Energy error            =      3.7E-06 Ry
     Gradient error          =      6.9E-04 Ry/Bohr

     bfgs converged in   2 scf cycles and   1 bfgs steps
     (criteria: energy <  1.0E-04 Ry, force <  1.0E-03 Ry/Bohr)

     End of BFGS Geometry Optimization

     Final energy             =     -19.2605578027 Ry

     File ./Si_elastic_trigonal.bfgs deleted, as requested
Begin final coordinates

ATOMIC_POSITIONS (crystal)
Si            0.0001554267        0.0001554267       -0.0001554267
Si            0.2498445733        0.2498445733        0.2501554267
End final coordinates

     Writing all to output data dir ./Si_elastic_trigonal.save/

     General routines

     Parallel routines

   This run was terminated on:  15:34:33  14Mar2022

   JOB DONE.