     Program PWSCF v.7.0 starts on 15Mar2022 at  0:37:28

     Waiting for input...
     Reading input from standard input
Warning: card &CELL ignored
Warning: card  CELL_DYNAMICS = 'BFGS', ignored
Warning: card  PRESS=0.1D0, ignored
Warning: card / ignored

     Current dimensions of program PWSCF are:
     Max number of different atomic species (ntypx) = 10
     Max number of k-points (npk) =  40000
     Max angular momentum in pseudopotentials (lmaxx) =  4
     Message from routine setup:
     using ibrav=0 with symmetry is DISCOURAGED, use correct ibrav instead

     Subspace diagonalization in iterative solution of the eigenvalue problem:
     a serial algorithm will be used

     Using Slab Decomposition

     bravais-lattice index     =            0
     lattice parameter (alat)  =      10.1900  a.u.
     unit-cell volume          =     264.4938 (a.u.)^3
     number of atoms/cell      =            2
     number of atomic types    =            1
     number of electrons       =         8.00
     number of Kohn-Sham states=            4
     kinetic-energy cutoff     =      30.0000  Ry
     charge density cutoff     =     300.0000  Ry
     scf convergence threshold =      1.0E-08
     mixing beta               =       0.7000
     number of iterations used =            8  plain     mixing
     energy convergence thresh.=      1.0E-04
     force convergence thresh. =      1.0E-03
     Exchange-correlation= SLA  PZ   NOGX NOGC
                           (   1   1   0   0   0   0   0)
     nstep                     =           50

     celldm(1)=  10.190000  celldm(2)=   0.000000  celldm(3)=   0.000000
     celldm(4)=   0.000000  celldm(5)=   0.000000  celldm(6)=   0.000000

     crystal axes: (cart. coord. in units of alat)
               a(1) = (  -0.503000   0.000000   0.494000 )
               a(2) = (   0.000000   0.503000   0.494000 )
               a(3) = (  -0.503000   0.503000   0.000000 )

     reciprocal axes: (cart. coord. in units 2 pi/alat)
               b(1) = ( -0.994036 -0.994036  1.012146 )
               b(2) = (  0.994036  0.994036  1.012146 )
               b(3) = ( -0.994036  0.994036 -1.012146 )

     PseudoPot. # 1 for Si read from file:
     ./Si_LDA.UPF
     MD5 check sum: b5ade7b37ee992b02096e360e546dc2d
     Pseudo is Ultrasoft + core correction, Zval =  4.0
     Generated by new atomic code, or converted to UPF format
     Using radial grid of  899 points,  6 beta functions with:
                l(1) =   0
                l(2) =   0
                l(3) =   1
                l(4) =   1
                l(5) =   2
                l(6) =   2
     Q(r) pseudized with  8 coefficients,  rinner =    0.900   0.900   0.900
                                                       0.900   0.900

     atomic species   valence    mass     pseudopotential
        Si             4.00    28.08550     Si( 1.00)

     16 Sym. Ops., with inversion, found ( 8 have fractional translation)

   Cartesian axes

     site n.     atom                  positions (alat units)
         1           Si  tau(   1) = (   0.0000000   0.0000000   0.0000000  )
         2           Si  tau(   2) = (  -0.2515000   0.2515000   0.2470000  )

     number of k points=    59
                       cart. coord. in units 2pi/alat
        k(    1) = (   0.0000000   0.0000000   0.0000000), wk =   0.0039062
        k(    2) = (  -0.1242545   0.1242545  -0.1265182), wk =   0.0312500
        k(    3) = (  -0.2485089   0.2485089  -0.2530364), wk =   0.0312500
        k(    4) = (  -0.3727634   0.3727634  -0.3795547), wk =   0.0312500
        k(    5) = (   0.4970179  -0.4970179   0.5060729), wk =   0.0156250
        k(    6) = (   0.0000000   0.2485089   0.0000000), wk =   0.0156250
        k(    7) = (  -0.1242545   0.3727634  -0.1265182), wk =   0.0625000
        k(    8) = (  -0.2485089   0.4970179  -0.2530364), wk =   0.0625000
        k(    9) = (   0.6212724  -0.3727634   0.6325911), wk =   0.0625000
        k(   10) = (   0.4970179  -0.2485089   0.5060729), wk =   0.0625000
        k(   11) = (   0.3727634  -0.1242545   0.3795547), wk =   0.0625000
        k(   12) = (   0.2485089   0.0000000   0.2530364), wk =   0.0312500
        k(   13) = (   0.0000000   0.4970179   0.0000000), wk =   0.0156250
        k(   14) = (  -0.1242545   0.6212724  -0.1265182), wk =   0.0625000
        k(   15) = (   0.7455268  -0.2485089   0.7591093), wk =   0.0625000
        k(   16) = (   0.6212724  -0.1242545   0.6325911), wk =   0.0625000
        k(   17) = (   0.4970179   0.0000000   0.5060729), wk =   0.0312500
        k(   18) = (   0.0000000   0.7455268   0.0000000), wk =   0.0156250
        k(   19) = (   0.8697813  -0.1242545   0.8856275), wk =   0.0625000
        k(   20) = (   0.7455268   0.0000000   0.7591093), wk =   0.0312500
        k(   21) = (   0.0000000  -0.9940358   0.0000000), wk =   0.0078125
        k(   22) = (   0.0000000   0.0000000   0.2530364), wk =   0.0078125
        k(   23) = (  -0.2485089   0.2485089   0.0000000), wk =   0.0156250
        k(   24) = (  -0.3727634   0.3727634  -0.1265182), wk =   0.0312500
        k(   25) = (   0.4970179  -0.4970179   0.7591093), wk =   0.0312500
        k(   26) = (   0.3727634  -0.3727634   0.6325911), wk =   0.0312500
        k(   27) = (   0.2485089  -0.2485089   0.5060729), wk =   0.0312500
        k(   28) = (   0.1242545  -0.1242545   0.3795547), wk =   0.0312500
        k(   29) = (  -0.2485089   0.4970179   0.0000000), wk =   0.0312500
        k(   30) = (   0.6212724  -0.3727634   0.8856275), wk =   0.0625000
        k(   31) = (   0.4970179  -0.2485089   0.7591093), wk =   0.0625000
        k(   32) = (   0.3727634  -0.1242545   0.6325911), wk =   0.0625000
        k(   33) = (   0.2485089   0.0000000   0.5060729), wk =   0.0312500
        k(   34) = (   0.0000000   0.4970179   0.2530364), wk =   0.0312500
        k(   35) = (   0.7455268  -0.2485089   1.0121457), wk =   0.0312500
        k(   36) = (   0.6212724  -0.1242545   0.8856275), wk =   0.0625000
        k(   37) = (   0.4970179   0.0000000   0.7591093), wk =   0.0312500
        k(   38) = (  -0.8697813  -0.3727634  -0.6325911), wk =   0.0625000
        k(   39) = (  -0.9940358  -0.2485089  -0.7591093), wk =   0.0312500
        k(   40) = (  -0.2485089  -0.9940358   0.0000000), wk =   0.0156250
        k(   41) = (  -0.7455268  -0.2485089  -0.5060729), wk =   0.0312500
        k(   42) = (  -0.8697813  -0.1242545  -0.6325911), wk =   0.0625000
        k(   43) = (   0.0000000  -0.9940358   0.2530364), wk =   0.0156250
        k(   44) = (  -0.7455268  -0.0000000  -0.5060729), wk =   0.0312500
        k(   45) = (   0.0000000   0.0000000   0.5060729), wk =   0.0078125
        k(   46) = (   0.4970179  -0.4970179   1.0121457), wk =   0.0156250
        k(   47) = (   0.3727634  -0.3727634   0.8856275), wk =   0.0312500
        k(   48) = (   0.2485089  -0.2485089   0.7591093), wk =   0.0312500
        k(   49) = (   0.1242545  -0.1242545   0.6325911), wk =   0.0312500
        k(   50) = (   0.4970179  -0.2485089   1.0121457), wk =   0.0312500
        k(   51) = (   0.3727634  -0.1242545   0.8856275), wk =   0.0625000
        k(   52) = (   0.2485089   0.0000000   0.7591093), wk =   0.0312500
        k(   53) = (  -0.4970179  -0.9940358   0.0000000), wk =   0.0156250
        k(   54) = (   0.0000000  -0.9940358   0.5060729), wk =   0.0078125
        k(   55) = (   0.0000000   0.0000000   0.7591093), wk =   0.0078125
        k(   56) = (   0.2485089  -0.2485089   1.0121457), wk =   0.0156250
        k(   57) = (   0.1242545  -0.1242545   0.8856275), wk =   0.0312500
        k(   58) = (  -0.7455268  -0.9940358   0.0000000), wk =   0.0156250
        k(   59) = (   0.0000000   0.0000000  -1.0121457), wk =   0.0039062

     Initial potential from superposition of free atoms

     starting charge       7.9988, renormalised to       8.0000
     Starting wfcs are    8 randomized atomic wfcs

     Self-consistent Calculation

     iteration #  1     ecut=    30.00 Ry     beta= 0.70
     CG style diagonalization
     ethr =  1.00E-02,  avg # of iterations =  3.0

     Threshold (ethr) on eigenvalues was too large:
     Diagonalizing with lowered threshold

     CG style diagonalization
     ethr =  7.38E-04,  avg # of iterations =  2.0

     total energy              =     -19.25634718 Ry
     estimated scf accuracy    <       0.05988619 Ry

[...]

     total energy              =     -19.26003050 Ry
     estimated scf accuracy    <       0.00000005 Ry

     iteration #  6     ecut=    30.00 Ry     beta= 0.70
     CG style diagonalization
     ethr =  6.64E-10,  avg # of iterations =  5.7

     End of self-consistent calculation

          k = 0.0000 0.0000 0.0000 (   725 PWs)   bands (ev):

    -5.8771   6.1930   6.1930   6.3179

          k =-0.1243 0.1243-0.1265 (   731 PWs)   bands (ev):

[...]

          k =-0.7455-0.9940 0.0000 (   734 PWs)   bands (ev):

[...]

          k = 0.0000 0.0000-1.0121 (   740 PWs)   bands (ev):

    -1.5836  -1.5836   3.2316   3.2316

     highest occupied level (ev):     6.3179

!    total energy              =     -19.26003072 Ry
     estimated scf accuracy    <          2.9E-09 Ry

     The total energy is the sum of the following terms:
     one-electron contribution =       5.20861224 Ry
     hartree contribution      =       1.09611191 Ry
     xc contribution           =      -8.64695729 Ry
     ewald contribution        =     -16.91779758 Ry

     convergence has been achieved in   6 iterations

     Forces acting on atoms (cartesian axes, Ry/au):

     atom    1 type  1   force =     0.00000000    0.00000000    0.00000000
     atom    2 type  1   force =     0.00000000    0.00000000    0.00000000

     Total force =     0.000000     Total SCF correction =     0.000000

     Computing stress (Cartesian axis) and pressure

          total   stress  (Ry/bohr**3)                   (kbar)     P=        4.42
  -0.00000830  -0.00000000   0.00000000           -1.22       -0.00        0.00
  -0.00000000  -0.00000830   0.00000000           -0.00       -1.22        0.00
   0.00000000   0.00000000   0.00010672            0.00        0.00       15.70

     BFGS Geometry Optimization
     Energy error            =      0.0E+00 Ry
     Gradient error          =      0.0E+00 Ry/Bohr

     bfgs converged in   1 scf cycles and   0 bfgs steps
     (criteria: energy <  1.0E-04 Ry, force <  1.0E-03 Ry/Bohr)

     End of BFGS Geometry Optimization

     Final energy             =     -19.2600307154 Ry
Begin final coordinates

ATOMIC_POSITIONS (crystal)
Si            0.0000000000        0.0000000000        0.0000000000
Si            0.2500000000        0.2500000000        0.2500000000
End final coordinates

     Writing all to output data dir ./Si_elastic_isotropic.save/

     General routines

     Parallel routines

   This run was terminated on:   0:37:48  15Mar2022

   JOB DONE.