     Program PWSCF v.6.7MaX starts on 23Feb2022 at 21:45:21

     R & G space division:  proc/nbgrp/npool/nimage =      36
     Waiting for input...
     Reading input from standard input

     Current dimensions of program PWSCF are:
     Max number of different atomic species (ntypx) = 10
     Max number of k-points (npk) =  40000
     Max angular momentum in pseudopotentials (lmaxx) =  3

     Subspace diagonalization in iterative solution of the eigenvalue problem:
     a serial algorithm will be used

     Message from routine setup:
     using ibrav=0 with symmetry is DISCOURAGED, use correct ibrav instead

     bravais-lattice index     =            0
     lattice parameter (alat)  =      20.6660  a.u.
     unit-cell volume          =    8826.0878 (a.u.)^3
     number of atoms/cell      =           42
     number of atomic types    =            1
     number of electrons       =       168.00
     number of Kohn-Sham states=           84
     kinetic-energy cutoff     =      30.0000  Ry
     charge density cutoff     =     120.0000  Ry
     scf convergence threshold =      1.0E-06
     mixing beta               =       0.7000
     number of iterations used =            8  plain     mixing
     Exchange-correlation=  SLA  PW   PBE  PBE
                           (   1   4   3   4   0   0   0)

     celldm(1)=  20.665984  celldm(2)=   0.000000  celldm(3)=   0.000000
     celldm(4)=   0.000000  celldm(5)=   0.000000  celldm(6)=   0.000000

     crystal axes: (cart. coord. in units of alat)
               a(1) = (   1.000000   0.000000   0.000000 )
               a(2) = (   0.000000   1.000000   0.000000 )
               a(3) = (   0.000000   0.000000   1.000000 )

     reciprocal axes: (cart. coord. in units 2 pi/alat)
               b(1) = (  1.000000  0.000000  0.000000 )
               b(2) = (  0.000000  1.000000  0.000000 )
               b(3) = (  0.000000  0.000000  1.000000 )

     PseudoPot. # 1 for Si read from file:
     ./Si.pbe-rrkj.UPF
     MD5 check sum: cf7ab5690cd9a85b22c4813f7e365554
     Pseudo is Norm-conserving, Zval =  4.0
     Generated by new atomic code, or converted to UPF format
     Using radial grid of  883 points,  3 beta functions with:
                l(1) =   0
                l(2) =   0
                l(3) =   1

     atomic species   valence    mass     pseudopotential
        Si             4.00    28.08600     Si( 1.00)

      4 Sym. Ops. (no inversion) found

   Cartesian axes

     site n.     atom                  positions (alat units)
         1           Si  tau(   1) = (   0.2500000   0.2500000   0.0000000  )
         2           Si  tau(   2) = (   0.7500000   0.2500000   0.0000000  )
         3           Si  tau(   3) = (   0.2500000   0.7500000   0.0000000  )
         4           Si  tau(   4) = (   0.7500000   0.7500000   0.0000000  )
         5           Si  tau(   5) = (   0.2500000   0.2500000   0.5000000  )
         6           Si  tau(   6) = (   0.7500000   0.2500000   0.5000000  )
         7           Si  tau(   7) = (   0.2500000   0.7500000   0.5000000  )
         8           Si  tau(   8) = (   0.7500000   0.7500000   0.5000000  )
         9           Si  tau(   9) = (   0.5000000   0.5000000   0.0000000  )
        10           Si  tau(  10) = (   0.5000000   0.5000000   0.5000000  )
        11           Si  tau(  11) = (   0.2500000   0.5000000   0.2500000  )
        12           Si  tau(  12) = (   0.7500000   0.5000000   0.2500000  )
        13           Si  tau(  13) = (   0.2500000   0.5000000   0.7500000  )
        14           Si  tau(  14) = (   0.7500000   0.5000000   0.7500000  )
        15           Si  tau(  15) = (   0.5000000   0.2500000   0.2500000  )
        16           Si  tau(  16) = (   0.5000000   0.7500000   0.2500000  )
        17           Si  tau(  17) = (   0.5000000   0.2500000   0.7500000  )
        18           Si  tau(  18) = (   0.5000000   0.7500000   0.7500000  )
        19           Si  tau(  19) = (   0.3750000   0.3750000   0.1250000  )
        20           Si  tau(  20) = (   0.8750000   0.3750000   0.1250000  )
        21           Si  tau(  21) = (   0.3750000   0.8750000   0.1250000  )
        22           Si  tau(  22) = (   0.8750000   0.8750000   0.1250000  )
        23           Si  tau(  23) = (   0.3750000   0.3750000   0.6250000  )
        24           Si  tau(  24) = (   0.8750000   0.3750000   0.6250000  )
        25           Si  tau(  25) = (   0.3750000   0.8750000   0.6250000  )
        26           Si  tau(  26) = (   0.8750000   0.8750000   0.6250000  )
        27           Si  tau(  27) = (   0.1250000   0.1250000   0.1250000  )
        28           Si  tau(  28) = (   0.6250000   0.1250000   0.1250000  )
        29           Si  tau(  29) = (   0.1250000   0.6250000   0.1250000  )
        30           Si  tau(  30) = (   0.6250000   0.6250000   0.1250000  )
        31           Si  tau(  31) = (   0.1250000   0.1250000   0.6250000  )
        32           Si  tau(  32) = (   0.6250000   0.1250000   0.6250000  )
        33           Si  tau(  33) = (   0.1250000   0.6250000   0.6250000  )
        34           Si  tau(  34) = (   0.6250000   0.6250000   0.6250000  )
        35           Si  tau(  35) = (   0.3750000   0.1250000   0.3750000  )
        36           Si  tau(  36) = (   0.8750000   0.1250000   0.3750000  )
        37           Si  tau(  37) = (   0.3750000   0.6250000   0.3750000  )
        38           Si  tau(  38) = (   0.8750000   0.6250000   0.3750000  )
        39           Si  tau(  39) = (   0.1250000   0.3750000   0.3750000  )
        40           Si  tau(  40) = (   0.6250000   0.3750000   0.3750000  )
        41           Si  tau(  41) = (   0.1250000   0.8750000   0.3750000  )
        42           Si  tau(  42) = (   0.6250000   0.8750000   0.3750000  )

     number of k points=    36
                       cart. coord. in units 2pi/alat
        k(    1) = (   0.0833333   0.0833333   0.0833333), wk =   0.0370370
        k(    2) = (   0.0833333   0.0833333   0.2500000), wk =   0.0370370
        k(    3) = (   0.0833333   0.0833333   0.4166667), wk =   0.0370370
        k(    4) = (   0.0833333   0.2500000   0.2500000), wk =   0.0740741
        k(    5) = (   0.0833333   0.2500000   0.4166667), wk =   0.0740741
        k(    6) = (   0.0833333   0.4166667   0.4166667), wk =   0.0740741
        k(    7) = (   0.2500000   0.2500000   0.2500000), wk =   0.0370370
        k(    8) = (   0.2500000   0.2500000   0.4166667), wk =   0.0370370
        k(    9) = (   0.2500000   0.4166667   0.4166667), wk =   0.0740741
        k(   10) = (   0.4166667   0.4166667   0.4166667), wk =   0.0370370
        k(   11) = (   0.0833333  -0.0833333   0.0833333), wk =   0.0370370
        k(   12) = (   0.0833333  -0.0833333   0.2500000), wk =   0.0370370
        k(   13) = (   0.2500000  -0.0833333   0.0833333), wk =   0.0740741
        k(   14) = (  -0.2500000  -0.0833333  -0.0833333), wk =   0.0740741
        k(   15) = (   0.0833333  -0.0833333   0.4166667), wk =   0.0370370
        k(   16) = (   0.4166667  -0.0833333   0.0833333), wk =   0.0740741
        k(   17) = (  -0.4166667  -0.0833333  -0.0833333), wk =   0.0740741
        k(   18) = (   0.2500000  -0.0833333   0.2500000), wk =   0.0740741
        k(   19) = (   0.2500000  -0.2500000   0.0833333), wk =   0.0370370
        k(   20) = (  -0.2500000  -0.2500000  -0.0833333), wk =   0.0370370
        k(   21) = (   0.2500000  -0.0833333   0.4166667), wk =   0.0740741
        k(   22) = (   0.4166667  -0.2500000   0.0833333), wk =   0.0740741
        k(   23) = (  -0.4166667  -0.2500000  -0.0833333), wk =   0.0740741
        k(   24) = (  -0.0833333   0.4166667   0.2500000), wk =   0.0740741
        k(   25) = (  -0.0833333  -0.4166667  -0.2500000), wk =   0.0740741
        k(   26) = (   0.4166667  -0.0833333   0.4166667), wk =   0.0740741
        k(   27) = (   0.4166667  -0.4166667   0.0833333), wk =   0.0370370
        k(   28) = (  -0.4166667  -0.4166667  -0.0833333), wk =   0.0370370
        k(   29) = (   0.2500000  -0.2500000   0.2500000), wk =   0.0370370
        k(   30) = (   0.2500000  -0.2500000   0.4166667), wk =   0.0370370
        k(   31) = (   0.4166667  -0.2500000   0.2500000), wk =   0.0740741
        k(   32) = (  -0.4166667  -0.2500000  -0.2500000), wk =   0.0740741
        k(   33) = (   0.4166667  -0.2500000   0.4166667), wk =   0.0740741
        k(   34) = (   0.4166667  -0.4166667   0.2500000), wk =   0.0370370
        k(   35) = (  -0.4166667  -0.4166667  -0.2500000), wk =   0.0370370
        k(   36) = (   0.4166667  -0.4166667   0.4166667), wk =   0.0370370

     Initial potential from superposition of free atoms

     starting charge  167.97676, renormalised to  168.00000
     Starting wfcs are  168 randomized atomic wfcs

     Self-consistent Calculation

     iteration #  1     ecut=    30.00 Ry     beta= 0.70
     Davidson diagonalization with overlap
     ethr =  1.00E-02,  avg # of iterations =  2.0

     Threshold (ethr) on eigenvalues was too large:
     Diagonalizing with lowered threshold

     Davidson diagonalization with overlap
     ethr =  8.63E-04,  avg # of iterations =  3.0

     total energy              =    -326.26624739 Ry
     estimated scf accuracy    <       1.79539335 Ry

[...]

     iteration #  7     ecut=    30.00 Ry     beta= 0.70
     Davidson diagonalization with overlap
     c_bands:  1 eigenvalues not converged
     c_bands:  1 eigenvalues not converged
     ethr =  5.61E-05,  avg # of iterations =  7.2

[...]

     iteration # 18     ecut=    30.00 Ry     beta= 0.70
     Davidson diagonalization with overlap
     ethr =  1.91E-07,  avg # of iterations =  1.2

[...]

     total energy              =    -327.03562588 Ry
     estimated scf accuracy    <       0.00000100 Ry

     iteration # 28     ecut=    30.00 Ry     beta= 0.70
     Davidson diagonalization with overlap
     c_bands:  1 eigenvalues not converged
     c_bands:  1 eigenvalues not converged
     c_bands:  1 eigenvalues not converged
     c_bands:  1 eigenvalues not converged
     c_bands:  1 eigenvalues not converged
     c_bands:  1 eigenvalues not converged
     c_bands:  1 eigenvalues not converged
     c_bands:  1 eigenvalues not converged
     ethr =  5.98E-10,  avg # of iterations = 12.3

     End of self-consistent calculation

          k = 0.0833 0.0833 0.0833 ( 24453 PWs)   bands (ev):

    -8.6099  -7.7498  -7.7403  -7.7352  -7.1254  -7.0664  -6.9098  -6.7428
    -6.6829  -6.6107  -6.2979  -6.2820  -6.0248  -5.8336  -5.7950  -5.5689
    -5.4851  -5.2353  -4.7906  -4.6594  -4.5952  -4.5503  -4.4908  -4.4528
    -4.2865  -3.7833  -3.6870  -3.5440  -3.4442  -3.2999  -3.1990  -3.0891
    -3.0471  -2.9327  -2.7877  -2.2870  -2.1585  -2.0486  -1.5119  -1.4152
    -1.1915  -0.9009  -0.8331  -0.7737  -0.7507  -0.7327  -0.6013  -0.5678
    -0.4917  -0.4060  -0.2039  -0.0453   0.0129   0.0877   0.0929   0.2640
     0.3095   0.4135   0.5772   0.7007   0.7406   0.8269   0.8997   0.9249
     0.9613   0.9698   1.0954   1.1562   1.2366   1.2835   1.3999   1.5136
     1.5207   1.5795   1.6168   1.7396   1.8018   1.8374   1.9342   2.0642
     2.1132   2.1672   2.2500   2.2781

[...]

          k =-0.2500-0.0833-0.0833 ( 24489 PWs)   bands (ev):

[...]

          k =-0.4167-0.4167-0.2500 ( 24531 PWs)   bands (ev):

[...]

          k = 0.4167-0.4167 0.4167 ( 24551 PWs)   bands (ev):

    -8.5491  -7.8048  -7.7837  -7.7793  -7.2246  -7.2232  -7.0037  -6.5172
    -6.5017  -6.4917  -6.2481  -6.1903  -5.9488  -5.7372  -5.7028  -5.5302
    -5.4783  -5.3047  -4.9609  -4.9476  -4.8127  -4.6770  -4.6039  -4.5152
    -4.3658  -3.7531  -3.6156  -3.5486  -3.2797  -3.1987  -3.0049  -2.9097
    -2.8673  -2.7560  -2.6369  -2.5358  -2.2610  -2.2273  -1.6633  -1.5610
    -1.5406  -0.9748  -0.8857  -0.7966  -0.7103  -0.6057  -0.4993  -0.4709
    -0.4027  -0.2342  -0.1819  -0.0634  -0.0212   0.2002   0.2331   0.2413
     0.3495   0.4841   0.6609   0.6775   0.7214   0.7875   0.8445   0.9404
     0.9417   1.0391   1.0592   1.2268   1.2755   1.3164   1.3440   1.4320
     1.4915   1.6558   1.6624   1.7930   1.8565   1.8755   1.9459   2.0518
     2.0989   2.2026   2.2306   2.2512

     highest occupied level (ev):     2.3943

!    total energy              =    -327.03562604 Ry
     estimated scf accuracy    <       0.00000003 Ry

     The total energy is the sum of the following terms:
     one-electron contribution =     -81.48462906 Ry
     hartree contribution      =      90.16517017 Ry
     xc contribution           =     -94.38514921 Ry
     ewald contribution        =    -241.33101794 Ry

     convergence has been achieved in  28 iterations

     Forces acting on atoms (cartesian axes, Ry/au):

     atom    1 type  1   force =    -0.00158642   -0.00158642   -0.00740407
     atom    2 type  1   force =    -0.01281558    0.01281558    0.00064755
     atom    3 type  1   force =     0.01281558   -0.01281558    0.00064755
     atom    4 type  1   force =     0.00158642    0.00158642   -0.00740407
     atom    5 type  1   force =    -0.00163078   -0.00163078   -0.00485519
     atom    6 type  1   force =    -0.00653684    0.00653684    0.00096517
     atom    7 type  1   force =     0.00653684   -0.00653684    0.00096517
     atom    8 type  1   force =     0.00163078    0.00163078   -0.00485519
     atom    9 type  1   force =     0.00000000    0.00000000   -0.02933807
     atom   10 type  1   force =     0.00000000    0.00000000    0.00336767
     atom   11 type  1   force =     0.00140289   -0.00069620   -0.00087767
     atom   12 type  1   force =    -0.00140289    0.00069620   -0.00087767
     atom   13 type  1   force =     0.00825997    0.01124423    0.01920444
     atom   14 type  1   force =    -0.00825997   -0.01124423    0.01920444
     atom   15 type  1   force =    -0.00069620    0.00140289   -0.00087767
     atom   16 type  1   force =     0.00069620   -0.00140289   -0.00087767
     atom   17 type  1   force =     0.01124423    0.00825997    0.01920444
     atom   18 type  1   force =    -0.01124423   -0.00825997    0.01920444
     atom   19 type  1   force =    -0.00412961   -0.00412961   -0.00777746
     atom   20 type  1   force =     0.01128116   -0.02273988    0.00321581
     atom   21 type  1   force =    -0.02273988    0.01128116    0.00321581
     atom   22 type  1   force =    -0.00523316   -0.00523316    0.01069638
     atom   23 type  1   force =    -0.00244710   -0.00244710   -0.00228028
     atom   24 type  1   force =     0.02336006    0.00730961   -0.00526746
     atom   25 type  1   force =     0.00730961    0.02336006   -0.00526746
     atom   26 type  1   force =     0.01083651    0.01083651   -0.00531482
     atom   27 type  1   force =     0.00523316    0.00523316    0.01069638
     atom   28 type  1   force =     0.02273988   -0.01128116    0.00321581
     atom   29 type  1   force =    -0.01128116    0.02273988    0.00321581
     atom   30 type  1   force =     0.00412961    0.00412961   -0.00777746
     atom   31 type  1   force =    -0.01083651   -0.01083651   -0.00531482
     atom   32 type  1   force =    -0.00730961   -0.02336006   -0.00526746
     atom   33 type  1   force =    -0.02336006   -0.00730961   -0.00526746
     atom   34 type  1   force =     0.00244710    0.00244710   -0.00228028
     atom   35 type  1   force =    -0.00621422   -0.02626649    0.00174648
     atom   36 type  1   force =     0.01233441   -0.01233441   -0.01061185
     atom   37 type  1   force =    -0.00270579    0.00270579    0.00287657
     atom   38 type  1   force =     0.02626649    0.00621422    0.00174648
     atom   39 type  1   force =    -0.02626649   -0.00621422    0.00174648
     atom   40 type  1   force =     0.00270579   -0.00270579    0.00287657
     atom   41 type  1   force =    -0.01233441    0.01233441   -0.01061185
     atom   42 type  1   force =     0.00621422    0.02626649    0.00174648

     Total force =     0.119027     Total SCF correction =     0.000234

     Computing stress (Cartesian axis) and pressure

          total   stress  (Ry/bohr**3)                   (kbar)     P=      -34.06
  -0.00024624   0.00000319   0.00000000          -36.22        0.47        0.00
   0.00000319  -0.00024624   0.00000000            0.47      -36.22        0.00
   0.00000000   0.00000000  -0.00020206            0.00        0.00      -29.72

     Writing output data file ./Si64.save/

     General routines

     Parallel routines

   This run was terminated on:   1:17: 3  24Feb2022

   JOB DONE.