     Program PWSCF v.6.7MaX starts on 24Feb2022 at 13: 1:10

     R & G space division:  proc/nbgrp/npool/nimage =      36
     Waiting for input...
     Reading input from standard input

     Current dimensions of program PWSCF are:
     Max number of different atomic species (ntypx) = 10
     Max number of k-points (npk) =  40000
     Max angular momentum in pseudopotentials (lmaxx) =  3

     Subspace diagonalization in iterative solution of the eigenvalue problem:
     a serial algorithm will be used

     Message from routine setup:
     using ibrav=0 with symmetry is DISCOURAGED, use correct ibrav instead

     bravais-lattice index     =            0
     lattice parameter (alat)  =      20.6660  a.u.
     unit-cell volume          =    8826.0878 (a.u.)^3
     number of atoms/cell      =           42
     number of atomic types    =            1
     number of electrons       =       168.00
     number of Kohn-Sham states=           84
     kinetic-energy cutoff     =      50.0000  Ry
     charge density cutoff     =     200.0000  Ry
     scf convergence threshold =      1.0E-06
     mixing beta               =       0.7000
     number of iterations used =            8  plain     mixing
     Exchange-correlation=  SLA  PW   PBE  PBE
                           (   1   4   3   4   0   0   0)

     celldm(1)=  20.665984  celldm(2)=   0.000000  celldm(3)=   0.000000
     celldm(4)=   0.000000  celldm(5)=   0.000000  celldm(6)=   0.000000

     crystal axes: (cart. coord. in units of alat)
               a(1) = (   1.000000   0.000000   0.000000 )
               a(2) = (   0.000000   1.000000   0.000000 )
               a(3) = (   0.000000   0.000000   1.000000 )

     reciprocal axes: (cart. coord. in units 2 pi/alat)
               b(1) = (  1.000000  0.000000  0.000000 )
               b(2) = (  0.000000  1.000000  0.000000 )
               b(3) = (  0.000000  0.000000  1.000000 )

     PseudoPot. # 1 for Si read from file:
     ./Si.pbe-rrkj.UPF
     MD5 check sum: cf7ab5690cd9a85b22c4813f7e365554
     Pseudo is Norm-conserving, Zval =  4.0
     Generated by new atomic code, or converted to UPF format
     Using radial grid of  883 points,  3 beta functions with:
                l(1) =   0
                l(2) =   0
                l(3) =   1

     atomic species   valence    mass     pseudopotential
        Si             4.00    28.08600     Si( 1.00)

      4 Sym. Ops. (no inversion) found

   Cartesian axes

     site n.     atom                  positions (alat units)
         1           Si  tau(   1) = (   0.2500000   0.2500000   0.0000000  )
         2           Si  tau(   2) = (   0.7500000   0.2500000   0.0000000  )
         3           Si  tau(   3) = (   0.2500000   0.7500000   0.0000000  )
         4           Si  tau(   4) = (   0.7500000   0.7500000   0.0000000  )
         5           Si  tau(   5) = (   0.2500000   0.2500000   0.5000000  )
         6           Si  tau(   6) = (   0.7500000   0.2500000   0.5000000  )
         7           Si  tau(   7) = (   0.2500000   0.7500000   0.5000000  )
         8           Si  tau(   8) = (   0.7500000   0.7500000   0.5000000  )
         9           Si  tau(   9) = (   0.5000000   0.5000000   0.0000000  )
        10           Si  tau(  10) = (   0.5000000   0.5000000   0.5000000  )
        11           Si  tau(  11) = (   0.2500000   0.5000000   0.2500000  )
        12           Si  tau(  12) = (   0.7500000   0.5000000   0.2500000  )
        13           Si  tau(  13) = (   0.2500000   0.5000000   0.7500000  )
        14           Si  tau(  14) = (   0.7500000   0.5000000   0.7500000  )
        15           Si  tau(  15) = (   0.5000000   0.2500000   0.2500000  )
        16           Si  tau(  16) = (   0.5000000   0.7500000   0.2500000  )
        17           Si  tau(  17) = (   0.5000000   0.2500000   0.7500000  )
        18           Si  tau(  18) = (   0.5000000   0.7500000   0.7500000  )
        19           Si  tau(  19) = (   0.3750000   0.3750000   0.1250000  )
        20           Si  tau(  20) = (   0.8750000   0.3750000   0.1250000  )
        21           Si  tau(  21) = (   0.3750000   0.8750000   0.1250000  )
        22           Si  tau(  22) = (   0.8750000   0.8750000   0.1250000  )
        23           Si  tau(  23) = (   0.3750000   0.3750000   0.6250000  )
        24           Si  tau(  24) = (   0.8750000   0.3750000   0.6250000  )
        25           Si  tau(  25) = (   0.3750000   0.8750000   0.6250000  )
        26           Si  tau(  26) = (   0.8750000   0.8750000   0.6250000  )
        27           Si  tau(  27) = (   0.1250000   0.1250000   0.1250000  )
        28           Si  tau(  28) = (   0.6250000   0.1250000   0.1250000  )
        29           Si  tau(  29) = (   0.1250000   0.6250000   0.1250000  )
        30           Si  tau(  30) = (   0.6250000   0.6250000   0.1250000  )
        31           Si  tau(  31) = (   0.1250000   0.1250000   0.6250000  )
        32           Si  tau(  32) = (   0.6250000   0.1250000   0.6250000  )
        33           Si  tau(  33) = (   0.1250000   0.6250000   0.6250000  )
        34           Si  tau(  34) = (   0.6250000   0.6250000   0.6250000  )
        35           Si  tau(  35) = (   0.3750000   0.1250000   0.3750000  )
        36           Si  tau(  36) = (   0.8750000   0.1250000   0.3750000  )
        37           Si  tau(  37) = (   0.3750000   0.6250000   0.3750000  )
        38           Si  tau(  38) = (   0.8750000   0.6250000   0.3750000  )
        39           Si  tau(  39) = (   0.1250000   0.3750000   0.3750000  )
        40           Si  tau(  40) = (   0.6250000   0.3750000   0.3750000  )
        41           Si  tau(  41) = (   0.1250000   0.8750000   0.3750000  )
        42           Si  tau(  42) = (   0.6250000   0.8750000   0.3750000  )

     number of k points=    36
                       cart. coord. in units 2pi/alat
        k(    1) = (   0.0833333   0.0833333   0.0833333), wk =   0.0370370
        k(    2) = (   0.0833333   0.0833333   0.2500000), wk =   0.0370370
        k(    3) = (   0.0833333   0.0833333   0.4166667), wk =   0.0370370
        k(    4) = (   0.0833333   0.2500000   0.2500000), wk =   0.0740741
        k(    5) = (   0.0833333   0.2500000   0.4166667), wk =   0.0740741
        k(    6) = (   0.0833333   0.4166667   0.4166667), wk =   0.0740741
        k(    7) = (   0.2500000   0.2500000   0.2500000), wk =   0.0370370
        k(    8) = (   0.2500000   0.2500000   0.4166667), wk =   0.0370370
        k(    9) = (   0.2500000   0.4166667   0.4166667), wk =   0.0740741
        k(   10) = (   0.4166667   0.4166667   0.4166667), wk =   0.0370370
        k(   11) = (   0.0833333  -0.0833333   0.0833333), wk =   0.0370370
        k(   12) = (   0.0833333  -0.0833333   0.2500000), wk =   0.0370370
        k(   13) = (   0.2500000  -0.0833333   0.0833333), wk =   0.0740741
        k(   14) = (  -0.2500000  -0.0833333  -0.0833333), wk =   0.0740741
        k(   15) = (   0.0833333  -0.0833333   0.4166667), wk =   0.0370370
        k(   16) = (   0.4166667  -0.0833333   0.0833333), wk =   0.0740741
        k(   17) = (  -0.4166667  -0.0833333  -0.0833333), wk =   0.0740741
        k(   18) = (   0.2500000  -0.0833333   0.2500000), wk =   0.0740741
        k(   19) = (   0.2500000  -0.2500000   0.0833333), wk =   0.0370370
        k(   20) = (  -0.2500000  -0.2500000  -0.0833333), wk =   0.0370370
        k(   21) = (   0.2500000  -0.0833333   0.4166667), wk =   0.0740741
        k(   22) = (   0.4166667  -0.2500000   0.0833333), wk =   0.0740741
        k(   23) = (  -0.4166667  -0.2500000  -0.0833333), wk =   0.0740741
        k(   24) = (  -0.0833333   0.4166667   0.2500000), wk =   0.0740741
        k(   25) = (  -0.0833333  -0.4166667  -0.2500000), wk =   0.0740741
        k(   26) = (   0.4166667  -0.0833333   0.4166667), wk =   0.0740741
        k(   27) = (   0.4166667  -0.4166667   0.0833333), wk =   0.0370370
        k(   28) = (  -0.4166667  -0.4166667  -0.0833333), wk =   0.0370370
        k(   29) = (   0.2500000  -0.2500000   0.2500000), wk =   0.0370370
        k(   30) = (   0.2500000  -0.2500000   0.4166667), wk =   0.0370370
        k(   31) = (   0.4166667  -0.2500000   0.2500000), wk =   0.0740741
        k(   32) = (  -0.4166667  -0.2500000  -0.2500000), wk =   0.0740741
        k(   33) = (   0.4166667  -0.2500000   0.4166667), wk =   0.0740741
        k(   34) = (   0.4166667  -0.4166667   0.2500000), wk =   0.0370370
        k(   35) = (  -0.4166667  -0.4166667  -0.2500000), wk =   0.0370370
        k(   36) = (   0.4166667  -0.4166667   0.4166667), wk =   0.0370370

     Initial potential from superposition of free atoms

     starting charge  167.97676, renormalised to  168.00000
     Starting wfcs are  168 randomized atomic wfcs

     Self-consistent Calculation

     iteration #  1     ecut=    50.00 Ry     beta= 0.70
     Davidson diagonalization with overlap
     ethr =  1.00E-02,  avg # of iterations =  2.0

     Threshold (ethr) on eigenvalues was too large:
     Diagonalizing with lowered threshold

     Davidson diagonalization with overlap
     ethr =  8.61E-04,  avg # of iterations =  3.2

     total energy              =    -326.26873010 Ry
     estimated scf accuracy    <       1.79287378 Ry

[...]

     iteration #  7     ecut=    50.00 Ry     beta= 0.70
     Davidson diagonalization with overlap
     c_bands:  1 eigenvalues not converged
     c_bands:  1 eigenvalues not converged
     ethr =  5.20E-05,  avg # of iterations =  8.8

[...]

     iteration #  8     ecut=    50.00 Ry     beta= 0.70
     Davidson diagonalization with overlap
     ethr =  5.12E-05,  avg # of iterations =  3.2

[...]

     total energy              =    -327.03715981 Ry
     estimated scf accuracy    <       0.00000131 Ry

     iteration # 35     ecut=    50.00 Ry     beta= 0.70
     Davidson diagonalization with overlap
     c_bands:  1 eigenvalues not converged
     c_bands:  1 eigenvalues not converged
     ethr =  7.80E-10,  avg # of iterations =  2.9

     End of self-consistent calculation

          k = 0.0833 0.0833 0.0833 ( 52665 PWs)   bands (ev):

    -8.6101  -7.7499  -7.7404  -7.7357  -7.1257  -7.0672  -6.9099  -6.7433
    -6.6829  -6.6108  -6.2976  -6.2817  -6.0238  -5.8343  -5.7949  -5.5688
    -5.4858  -5.2354  -4.7913  -4.6599  -4.5955  -4.5507  -4.4908  -4.4531
    -4.2868  -3.7834  -3.6870  -3.5445  -3.4446  -3.3001  -3.1992  -3.0899
    -3.0467  -2.9334  -2.7879  -2.2870  -2.1586  -2.0481  -1.5122  -1.4157
    -1.1919  -0.9012  -0.8332  -0.7739  -0.7507  -0.7330  -0.6016  -0.5679
    -0.4919  -0.4064  -0.2042  -0.0454   0.0125   0.0874   0.0926   0.2637
     0.3095   0.4133   0.5768   0.7007   0.7403   0.8269   0.8997   0.9249
     0.9612   0.9693   1.0954   1.1560   1.2366   1.2832   1.3995   1.5135
     1.5203   1.5791   1.6165   1.7394   1.8014   1.8368   1.9340   2.0640
     2.1132   2.1674   2.2503   2.2779

[...]

          k =-0.2500-0.0833-0.0833 ( 52687 PWs)   bands (ev):

[...]

          k =-0.4167-0.4167-0.2500 ( 52669 PWs)   bands (ev):

[...]

          k = 0.4167-0.4167 0.4167 ( 52653 PWs)   bands (ev):

    -8.5492  -7.8049  -7.7838  -7.7798  -7.2249  -7.2240  -7.0038  -6.5173
    -6.5020  -6.4917  -6.2473  -6.1909  -5.9479  -5.7371  -5.7035  -5.5307
    -5.4781  -5.3047  -4.9617  -4.9483  -4.8126  -4.6776  -4.6041  -4.5155
    -4.3661  -3.7535  -3.6156  -3.5487  -3.2799  -3.1993  -3.0048  -2.9102
    -2.8676  -2.7567  -2.6367  -2.5360  -2.2608  -2.2275  -1.6637  -1.5615
    -1.5407  -0.9750  -0.8856  -0.7967  -0.7104  -0.6060  -0.4995  -0.4711
    -0.4031  -0.2345  -0.1821  -0.0634  -0.0211   0.1998   0.2326   0.2410
     0.3499   0.4839   0.6607   0.6771   0.7212   0.7874   0.8442   0.9399
     0.9415   1.0390   1.0591   1.2268   1.2750   1.3161   1.3437   1.4318
     1.4912   1.6559   1.6620   1.7930   1.8560   1.8754   1.9454   2.0520
     2.0989   2.2022   2.2305   2.2507

     highest occupied level (ev):     2.3929

!    total energy              =    -327.03715908 Ry
     estimated scf accuracy    <       0.00000084 Ry

     The total energy is the sum of the following terms:
     one-electron contribution =     -81.48816924 Ry
     hartree contribution      =      90.16631235 Ry
     xc contribution           =     -94.38428425 Ry
     ewald contribution        =    -241.33101794 Ry

     convergence has been achieved in  35 iterations

     Forces acting on atoms (cartesian axes, Ry/au):

     atom    1 type  1   force =    -0.00161909   -0.00161909   -0.00746215
     atom    2 type  1   force =    -0.01271776    0.01271776    0.00052321
     atom    3 type  1   force =     0.01271776   -0.01271776    0.00052321
     atom    4 type  1   force =     0.00161909    0.00161909   -0.00746215
     atom    5 type  1   force =    -0.00168014   -0.00168014   -0.00487217
     atom    6 type  1   force =    -0.00653554    0.00653554    0.00096246
     atom    7 type  1   force =     0.00653554   -0.00653554    0.00096246
     atom    8 type  1   force =     0.00168014    0.00168014   -0.00487217
     atom    9 type  1   force =     0.00000000    0.00000000   -0.02939708
     atom   10 type  1   force =     0.00000000    0.00000000    0.00330786
     atom   11 type  1   force =     0.00137611   -0.00063929   -0.00083223
     atom   12 type  1   force =    -0.00137611    0.00063929   -0.00083223
     atom   13 type  1   force =     0.00823362    0.01127442    0.01921647
     atom   14 type  1   force =    -0.00823362   -0.01127442    0.01921647
     atom   15 type  1   force =    -0.00063929    0.00137611   -0.00083223
     atom   16 type  1   force =     0.00063929   -0.00137611   -0.00083223
     atom   17 type  1   force =     0.01127442    0.00823362    0.01921647
     atom   18 type  1   force =    -0.01127442   -0.00823362    0.01921647
     atom   19 type  1   force =    -0.00409686   -0.00409686   -0.00765721
     atom   20 type  1   force =     0.01113167   -0.02271715    0.00320053
     atom   21 type  1   force =    -0.02271715    0.01113167    0.00320053
     atom   22 type  1   force =    -0.00522252   -0.00522252    0.01071411
     atom   23 type  1   force =    -0.00238103   -0.00238103   -0.00228927
     atom   24 type  1   force =     0.02323571    0.00735936   -0.00519628
     atom   25 type  1   force =     0.00735936    0.02323571   -0.00519628
     atom   26 type  1   force =     0.01084693    0.01084693   -0.00534776
     atom   27 type  1   force =     0.00522252    0.00522252    0.01071411
     atom   28 type  1   force =     0.02271715   -0.01113167    0.00320053
     atom   29 type  1   force =    -0.01113167    0.02271715    0.00320053
     atom   30 type  1   force =     0.00409686    0.00409686   -0.00765721
     atom   31 type  1   force =    -0.01084693   -0.01084693   -0.00534776
     atom   32 type  1   force =    -0.00735936   -0.02323571   -0.00519628
     atom   33 type  1   force =    -0.02323571   -0.00735936   -0.00519628
     atom   34 type  1   force =     0.00238103    0.00238103   -0.00228927
     atom   35 type  1   force =    -0.00627894   -0.02621356    0.00171478
     atom   36 type  1   force =     0.01238562   -0.01238562   -0.01062397
     atom   37 type  1   force =    -0.00265946    0.00265946    0.00289083
     atom   38 type  1   force =     0.02621356    0.00627894    0.00171478
     atom   39 type  1   force =    -0.02621356   -0.00627894    0.00171478
     atom   40 type  1   force =     0.00265946   -0.00265946    0.00289083
     atom   41 type  1   force =    -0.01238562    0.01238562   -0.01062397
     atom   42 type  1   force =     0.00627894    0.02621356    0.00171478

     Total force =     0.118812     Total SCF correction =     0.001240

     Computing stress (Cartesian axis) and pressure

          total   stress  (Ry/bohr**3)                   (kbar)     P=      -34.02
  -0.00024615   0.00000307   0.00000000          -36.21        0.45        0.00
   0.00000307  -0.00024615   0.00000000            0.45      -36.21        0.00
   0.00000000   0.00000000  -0.00020141            0.00        0.00      -29.63

     Writing output data file ./Si64.save/

     General routines

     Parallel routines

   This run was terminated on:  18: 4: 4  24Feb2022

   JOB DONE.