     Program PWSCF v.6.7MaX starts on 23Feb2022 at 17:50: 1

     R & G space division:  proc/nbgrp/npool/nimage =      36
     Waiting for input...
     Reading input from standard input

     Current dimensions of program PWSCF are:
     Max number of different atomic species (ntypx) = 10
     Max number of k-points (npk) =  40000
     Max angular momentum in pseudopotentials (lmaxx) =  3

     Subspace diagonalization in iterative solution of the eigenvalue problem:
     a serial algorithm will be used

     Message from routine setup:
     using ibrav=0 with symmetry is DISCOURAGED, use correct ibrav instead

     bravais-lattice index     =            0
     lattice parameter (alat)  =      20.6660  a.u.
     unit-cell volume          =    8826.0878 (a.u.)^3
     number of atoms/cell      =           42
     number of atomic types    =            1
     number of electrons       =       168.00
     number of Kohn-Sham states=           84
     kinetic-energy cutoff     =      20.0000  Ry
     charge density cutoff     =      80.0000  Ry
     scf convergence threshold =      1.0E-06
     mixing beta               =       0.7000
     number of iterations used =            8  plain     mixing
     Exchange-correlation=  SLA  PW   PBE  PBE
                           (   1   4   3   4   0   0   0)

     celldm(1)=  20.665984  celldm(2)=   0.000000  celldm(3)=   0.000000
     celldm(4)=   0.000000  celldm(5)=   0.000000  celldm(6)=   0.000000

     crystal axes: (cart. coord. in units of alat)
               a(1) = (   1.000000   0.000000   0.000000 )
               a(2) = (   0.000000   1.000000   0.000000 )
               a(3) = (   0.000000   0.000000   1.000000 )

     reciprocal axes: (cart. coord. in units 2 pi/alat)
               b(1) = (  1.000000  0.000000  0.000000 )
               b(2) = (  0.000000  1.000000  0.000000 )
               b(3) = (  0.000000  0.000000  1.000000 )

     PseudoPot. # 1 for Si read from file:
     ./Si.pbe-rrkj.UPF
     MD5 check sum: cf7ab5690cd9a85b22c4813f7e365554
     Pseudo is Norm-conserving, Zval =  4.0
     Generated by new atomic code, or converted to UPF format
     Using radial grid of  883 points,  3 beta functions with:
                l(1) =   0
                l(2) =   0
                l(3) =   1

     atomic species   valence    mass     pseudopotential
        Si             4.00    28.08600     Si( 1.00)

      4 Sym. Ops. (no inversion) found

   Cartesian axes

     site n.     atom                  positions (alat units)
         1           Si  tau(   1) = (   0.2500000   0.2500000   0.0000000  )
         2           Si  tau(   2) = (   0.7500000   0.2500000   0.0000000  )
         3           Si  tau(   3) = (   0.2500000   0.7500000   0.0000000  )
         4           Si  tau(   4) = (   0.7500000   0.7500000   0.0000000  )
         5           Si  tau(   5) = (   0.2500000   0.2500000   0.5000000  )
         6           Si  tau(   6) = (   0.7500000   0.2500000   0.5000000  )
         7           Si  tau(   7) = (   0.2500000   0.7500000   0.5000000  )
         8           Si  tau(   8) = (   0.7500000   0.7500000   0.5000000  )
         9           Si  tau(   9) = (   0.5000000   0.5000000   0.0000000  )
        10           Si  tau(  10) = (   0.5000000   0.5000000   0.5000000  )
        11           Si  tau(  11) = (   0.2500000   0.5000000   0.2500000  )
        12           Si  tau(  12) = (   0.7500000   0.5000000   0.2500000  )
        13           Si  tau(  13) = (   0.2500000   0.5000000   0.7500000  )
        14           Si  tau(  14) = (   0.7500000   0.5000000   0.7500000  )
        15           Si  tau(  15) = (   0.5000000   0.2500000   0.2500000  )
        16           Si  tau(  16) = (   0.5000000   0.7500000   0.2500000  )
        17           Si  tau(  17) = (   0.5000000   0.2500000   0.7500000  )
        18           Si  tau(  18) = (   0.5000000   0.7500000   0.7500000  )
        19           Si  tau(  19) = (   0.3750000   0.3750000   0.1250000  )
        20           Si  tau(  20) = (   0.8750000   0.3750000   0.1250000  )
        21           Si  tau(  21) = (   0.3750000   0.8750000   0.1250000  )
        22           Si  tau(  22) = (   0.8750000   0.8750000   0.1250000  )
        23           Si  tau(  23) = (   0.3750000   0.3750000   0.6250000  )
        24           Si  tau(  24) = (   0.8750000   0.3750000   0.6250000  )
        25           Si  tau(  25) = (   0.3750000   0.8750000   0.6250000  )
        26           Si  tau(  26) = (   0.8750000   0.8750000   0.6250000  )
        27           Si  tau(  27) = (   0.1250000   0.1250000   0.1250000  )
        28           Si  tau(  28) = (   0.6250000   0.1250000   0.1250000  )
        29           Si  tau(  29) = (   0.1250000   0.6250000   0.1250000  )
        30           Si  tau(  30) = (   0.6250000   0.6250000   0.1250000  )
        31           Si  tau(  31) = (   0.1250000   0.1250000   0.6250000  )
        32           Si  tau(  32) = (   0.6250000   0.1250000   0.6250000  )
        33           Si  tau(  33) = (   0.1250000   0.6250000   0.6250000  )
        34           Si  tau(  34) = (   0.6250000   0.6250000   0.6250000  )
        35           Si  tau(  35) = (   0.3750000   0.1250000   0.3750000  )
        36           Si  tau(  36) = (   0.8750000   0.1250000   0.3750000  )
        37           Si  tau(  37) = (   0.3750000   0.6250000   0.3750000  )
        38           Si  tau(  38) = (   0.8750000   0.6250000   0.3750000  )
        39           Si  tau(  39) = (   0.1250000   0.3750000   0.3750000  )
        40           Si  tau(  40) = (   0.6250000   0.3750000   0.3750000  )
        41           Si  tau(  41) = (   0.1250000   0.8750000   0.3750000  )
        42           Si  tau(  42) = (   0.6250000   0.8750000   0.3750000  )

     number of k points=    36
                       cart. coord. in units 2pi/alat
        k(    1) = (   0.0833333   0.0833333   0.0833333), wk =   0.0370370
        k(    2) = (   0.0833333   0.0833333   0.2500000), wk =   0.0370370
        k(    3) = (   0.0833333   0.0833333   0.4166667), wk =   0.0370370
        k(    4) = (   0.0833333   0.2500000   0.2500000), wk =   0.0740741
        k(    5) = (   0.0833333   0.2500000   0.4166667), wk =   0.0740741
        k(    6) = (   0.0833333   0.4166667   0.4166667), wk =   0.0740741
        k(    7) = (   0.2500000   0.2500000   0.2500000), wk =   0.0370370
        k(    8) = (   0.2500000   0.2500000   0.4166667), wk =   0.0370370
        k(    9) = (   0.2500000   0.4166667   0.4166667), wk =   0.0740741
        k(   10) = (   0.4166667   0.4166667   0.4166667), wk =   0.0370370
        k(   11) = (   0.0833333  -0.0833333   0.0833333), wk =   0.0370370
        k(   12) = (   0.0833333  -0.0833333   0.2500000), wk =   0.0370370
        k(   13) = (   0.2500000  -0.0833333   0.0833333), wk =   0.0740741
        k(   14) = (  -0.2500000  -0.0833333  -0.0833333), wk =   0.0740741
        k(   15) = (   0.0833333  -0.0833333   0.4166667), wk =   0.0370370
        k(   16) = (   0.4166667  -0.0833333   0.0833333), wk =   0.0740741
        k(   17) = (  -0.4166667  -0.0833333  -0.0833333), wk =   0.0740741
        k(   18) = (   0.2500000  -0.0833333   0.2500000), wk =   0.0740741
        k(   19) = (   0.2500000  -0.2500000   0.0833333), wk =   0.0370370
        k(   20) = (  -0.2500000  -0.2500000  -0.0833333), wk =   0.0370370
        k(   21) = (   0.2500000  -0.0833333   0.4166667), wk =   0.0740741
        k(   22) = (   0.4166667  -0.2500000   0.0833333), wk =   0.0740741
        k(   23) = (  -0.4166667  -0.2500000  -0.0833333), wk =   0.0740741
        k(   24) = (  -0.0833333   0.4166667   0.2500000), wk =   0.0740741
        k(   25) = (  -0.0833333  -0.4166667  -0.2500000), wk =   0.0740741
        k(   26) = (   0.4166667  -0.0833333   0.4166667), wk =   0.0740741
        k(   27) = (   0.4166667  -0.4166667   0.0833333), wk =   0.0370370
        k(   28) = (  -0.4166667  -0.4166667  -0.0833333), wk =   0.0370370
        k(   29) = (   0.2500000  -0.2500000   0.2500000), wk =   0.0370370
        k(   30) = (   0.2500000  -0.2500000   0.4166667), wk =   0.0370370
        k(   31) = (   0.4166667  -0.2500000   0.2500000), wk =   0.0740741
        k(   32) = (  -0.4166667  -0.2500000  -0.2500000), wk =   0.0740741
        k(   33) = (   0.4166667  -0.2500000   0.4166667), wk =   0.0740741
        k(   34) = (   0.4166667  -0.4166667   0.2500000), wk =   0.0370370
        k(   35) = (  -0.4166667  -0.4166667  -0.2500000), wk =   0.0370370
        k(   36) = (   0.4166667  -0.4166667   0.4166667), wk =   0.0370370

     Initial potential from superposition of free atoms

     starting charge  167.97676, renormalised to  168.00000
     Starting wfcs are  168 randomized atomic wfcs

     Self-consistent Calculation

     iteration #  1     ecut=    20.00 Ry     beta= 0.70
     Davidson diagonalization with overlap
     ethr =  1.00E-02,  avg # of iterations =  2.0

     Threshold (ethr) on eigenvalues was too large:
     Diagonalizing with lowered threshold

     Davidson diagonalization with overlap
     ethr =  8.67E-04,  avg # of iterations =  2.9

     total energy              =    -326.25305961 Ry
     estimated scf accuracy    <       1.80011107 Ry

[...]

     iteration #  7     ecut=    20.00 Ry     beta= 0.70
     Davidson diagonalization with overlap
     c_bands:  1 eigenvalues not converged
     c_bands:  1 eigenvalues not converged
     ethr =  5.33E-05,  avg # of iterations =  8.7

[...]

     iteration #  8     ecut=    20.00 Ry     beta= 0.70
     Davidson diagonalization with overlap
     ethr =  5.27E-05,  avg # of iterations =  3.5

[...]

     total energy              =    -327.02562962 Ry
     estimated scf accuracy    <       0.00000122 Ry

     iteration # 26     ecut=    20.00 Ry     beta= 0.70
     Davidson diagonalization with overlap
     c_bands:  1 eigenvalues not converged
     c_bands:  1 eigenvalues not converged
     c_bands:  1 eigenvalues not converged
     c_bands:  1 eigenvalues not converged
     c_bands:  1 eigenvalues not converged
     c_bands:  1 eigenvalues not converged
     ethr =  7.27E-10,  avg # of iterations = 11.2

     End of self-consistent calculation

          k = 0.0833 0.0833 0.0833 ( 13331 PWs)   bands (ev):

    -8.6094  -7.7495  -7.7397  -7.7347  -7.1248  -7.0660  -6.9094  -6.7424
    -6.6824  -6.6099  -6.2973  -6.2813  -6.0243  -5.8330  -5.7942  -5.5679
    -5.4845  -5.2346  -4.7899  -4.6589  -4.5947  -4.5497  -4.4902  -4.4521
    -4.2859  -3.7828  -3.6863  -3.5435  -3.4436  -3.2993  -3.1984  -3.0885
    -3.0464  -2.9320  -2.7868  -2.2864  -2.1577  -2.0480  -1.5114  -1.4147
    -1.1909  -0.9003  -0.8323  -0.7730  -0.7500  -0.7319  -0.6006  -0.5668
    -0.4910  -0.4053  -0.2031  -0.0445   0.0135   0.0885   0.0936   0.2647
     0.3101   0.4142   0.5778   0.7013   0.7412   0.8275   0.9004   0.9255
     0.9619   0.9705   1.0962   1.1569   1.2373   1.2841   1.4006   1.5142
     1.5213   1.5800   1.6174   1.7403   1.8024   1.8380   1.9349   2.0647
     2.1141   2.1679   2.2508   2.2787

[...]

          k =-0.2500-0.0833-0.0833 ( 13348 PWs)   bands (ev):

[...]

          k =-0.4167-0.4167-0.2500 ( 13326 PWs)   bands (ev):

[...]

          k = 0.4167-0.4167 0.4167 ( 13322 PWs)   bands (ev):

    -8.5486  -7.8044  -7.7830  -7.7788  -7.2239  -7.2229  -7.0033  -6.5166
    -6.5012  -6.4913  -6.2475  -6.1896  -5.9482  -5.7364  -5.7022  -5.5295
    -5.4773  -5.3041  -4.9603  -4.9471  -4.8120  -4.6765  -4.6033  -4.5148
    -4.3652  -3.7526  -3.6149  -3.5479  -3.2790  -3.1982  -3.0041  -2.9091
    -2.8667  -2.7554  -2.6362  -2.5352  -2.2605  -2.2264  -1.6628  -1.5603
    -1.5400  -0.9742  -0.8851  -0.7959  -0.7096  -0.6050  -0.4984  -0.4701
    -0.4019  -0.2335  -0.1813  -0.0627  -0.0205   0.2008   0.2339   0.2419
     0.3503   0.4847   0.6615   0.6783   0.7221   0.7882   0.8451   0.9411
     0.9424   1.0398   1.0599   1.2274   1.2761   1.3170   1.3448   1.4327
     1.4922   1.6564   1.6630   1.7936   1.8572   1.8760   1.9465   2.0525
     2.0996   2.2033   2.2312   2.2519

     highest occupied level (ev):     2.3949

!    total energy              =    -327.02562960 Ry
     estimated scf accuracy    <       0.00000038 Ry

     The total energy is the sum of the following terms:
     one-electron contribution =     -81.47053240 Ry
     hartree contribution      =      90.15954969 Ry
     xc contribution           =     -94.38362310 Ry
     ewald contribution        =    -241.33102380 Ry

     convergence has been achieved in  26 iterations

     Forces acting on atoms (cartesian axes, Ry/au):

     atom    1 type  1   force =    -0.00156847   -0.00156847   -0.00754945
     atom    2 type  1   force =    -0.01282628    0.01282628    0.00052919
     atom    3 type  1   force =     0.01282628   -0.01282628    0.00052919
     atom    4 type  1   force =     0.00156847    0.00156847   -0.00754945
     atom    5 type  1   force =    -0.00163367   -0.00163367   -0.00482638
     atom    6 type  1   force =    -0.00655389    0.00655389    0.00098350
     atom    7 type  1   force =     0.00655389   -0.00655389    0.00098350
     atom    8 type  1   force =     0.00163367    0.00163367   -0.00482638
     atom    9 type  1   force =     0.00000000    0.00000000   -0.02948763
     atom   10 type  1   force =     0.00000000    0.00000000    0.00339055
     atom   11 type  1   force =     0.00141338   -0.00069027   -0.00090235
     atom   12 type  1   force =    -0.00141338    0.00069027   -0.00090235
     atom   13 type  1   force =     0.00828269    0.01124724    0.01934714
     atom   14 type  1   force =    -0.00828269   -0.01124724    0.01934714
     atom   15 type  1   force =    -0.00069027    0.00141338   -0.00090235
     atom   16 type  1   force =     0.00069027   -0.00141338   -0.00090235
     atom   17 type  1   force =     0.01124724    0.00828269    0.01934714
     atom   18 type  1   force =    -0.01124724   -0.00828269    0.01934714
     atom   19 type  1   force =    -0.00414423   -0.00414423   -0.00778252
     atom   20 type  1   force =     0.01138910   -0.02274611    0.00322769
     atom   21 type  1   force =    -0.02274611    0.01138910    0.00322769
     atom   22 type  1   force =    -0.00516192   -0.00516192    0.01077951
     atom   23 type  1   force =    -0.00243919   -0.00243919   -0.00227533
     atom   24 type  1   force =     0.02347280    0.00731331   -0.00528024
     atom   25 type  1   force =     0.00731331    0.02347280   -0.00528024
     atom   26 type  1   force =     0.01088639    0.01088639   -0.00529096
     atom   27 type  1   force =     0.00516192    0.00516192    0.01077951
     atom   28 type  1   force =     0.02274611   -0.01138910    0.00322769
     atom   29 type  1   force =    -0.01138910    0.02274611    0.00322769
     atom   30 type  1   force =     0.00414423    0.00414423   -0.00778252
     atom   31 type  1   force =    -0.01088639   -0.01088639   -0.00529096
     atom   32 type  1   force =    -0.00731331   -0.02347280   -0.00528024
     atom   33 type  1   force =    -0.02347280   -0.00731331   -0.00528024
     atom   34 type  1   force =     0.00243919    0.00243919   -0.00227533
     atom   35 type  1   force =    -0.00620762   -0.02638606    0.00174438
     atom   36 type  1   force =     0.01239141   -0.01239141   -0.01067486
     atom   37 type  1   force =    -0.00270447    0.00270447    0.00288259
     atom   38 type  1   force =     0.02638606    0.00620762    0.00174438
     atom   39 type  1   force =    -0.02638606   -0.00620762    0.00174438
     atom   40 type  1   force =     0.00270447   -0.00270447    0.00288259
     atom   41 type  1   force =    -0.01239141    0.01239141   -0.01067486
     atom   42 type  1   force =     0.00620762    0.02638606    0.00174438

     Total force =     0.119486     Total SCF correction =     0.000693

     Computing stress (Cartesian axis) and pressure

          total   stress  (Ry/bohr**3)                   (kbar)     P=      -34.71
  -0.00025066   0.00000319   0.00000000          -36.87        0.47        0.00
   0.00000319  -0.00025066   0.00000000            0.47      -36.87        0.00
   0.00000000   0.00000000  -0.00020644            0.00        0.00      -30.37

     Writing output data file ./Si64.save/

     General routines

     Parallel routines

   This run was terminated on:  21:45:20  23Feb2022

   JOB DONE.