     Program PWSCF v.6.7MaX starts on 24Feb2022 at  8:12:38

     R & G space division:  proc/nbgrp/npool/nimage =      40
     Waiting for input...
     Reading input from standard input

     Current dimensions of program PWSCF are:
     Max number of different atomic species (ntypx) = 10
     Max number of k-points (npk) =  40000
     Max angular momentum in pseudopotentials (lmaxx) =  3

     Subspace diagonalization in iterative solution of the eigenvalue problem:
     a serial algorithm will be used

     Message from routine setup:
     using ibrav=0 with symmetry is DISCOURAGED, use correct ibrav instead

     bravais-lattice index     =            0
     lattice parameter (alat)  =      20.6660  a.u.
     unit-cell volume          =    8826.0878 (a.u.)^3
     number of atoms/cell      =           42
     number of atomic types    =            1
     number of electrons       =       168.00
     number of Kohn-Sham states=           84
     kinetic-energy cutoff     =      70.0000  Ry
     charge density cutoff     =     280.0000  Ry
     scf convergence threshold =      1.0E-06
     mixing beta               =       0.7000
     number of iterations used =            8  plain     mixing
     Exchange-correlation=  SLA  PW   PBE  PBE
                           (   1   4   3   4   0   0   0)

     celldm(1)=  20.665984  celldm(2)=   0.000000  celldm(3)=   0.000000
     celldm(4)=   0.000000  celldm(5)=   0.000000  celldm(6)=   0.000000

     crystal axes: (cart. coord. in units of alat)
               a(1) = (   1.000000   0.000000   0.000000 )
               a(2) = (   0.000000   1.000000   0.000000 )
               a(3) = (   0.000000   0.000000   1.000000 )

     reciprocal axes: (cart. coord. in units 2 pi/alat)
               b(1) = (  1.000000  0.000000  0.000000 )
               b(2) = (  0.000000  1.000000  0.000000 )
               b(3) = (  0.000000  0.000000  1.000000 )

     PseudoPot. # 1 for Si read from file:
     ./Si.pbe-rrkj.UPF
     MD5 check sum: cf7ab5690cd9a85b22c4813f7e365554
     Pseudo is Norm-conserving, Zval =  4.0
     Generated by new atomic code, or converted to UPF format
     Using radial grid of  883 points,  3 beta functions with:
                l(1) =   0
                l(2) =   0
                l(3) =   1

     atomic species   valence    mass     pseudopotential
        Si             4.00    28.08600     Si( 1.00)

      4 Sym. Ops. (no inversion) found

   Cartesian axes

     site n.     atom                  positions (alat units)
         1           Si  tau(   1) = (   0.2500000   0.2500000   0.0000000  )
         2           Si  tau(   2) = (   0.7500000   0.2500000   0.0000000  )
         3           Si  tau(   3) = (   0.2500000   0.7500000   0.0000000  )
         4           Si  tau(   4) = (   0.7500000   0.7500000   0.0000000  )
         5           Si  tau(   5) = (   0.2500000   0.2500000   0.5000000  )
         6           Si  tau(   6) = (   0.7500000   0.2500000   0.5000000  )
         7           Si  tau(   7) = (   0.2500000   0.7500000   0.5000000  )
         8           Si  tau(   8) = (   0.7500000   0.7500000   0.5000000  )
         9           Si  tau(   9) = (   0.5000000   0.5000000   0.0000000  )
        10           Si  tau(  10) = (   0.5000000   0.5000000   0.5000000  )
        11           Si  tau(  11) = (   0.2500000   0.5000000   0.2500000  )
        12           Si  tau(  12) = (   0.7500000   0.5000000   0.2500000  )
        13           Si  tau(  13) = (   0.2500000   0.5000000   0.7500000  )
        14           Si  tau(  14) = (   0.7500000   0.5000000   0.7500000  )
        15           Si  tau(  15) = (   0.5000000   0.2500000   0.2500000  )
        16           Si  tau(  16) = (   0.5000000   0.7500000   0.2500000  )
        17           Si  tau(  17) = (   0.5000000   0.2500000   0.7500000  )
        18           Si  tau(  18) = (   0.5000000   0.7500000   0.7500000  )
        19           Si  tau(  19) = (   0.3750000   0.3750000   0.1250000  )
        20           Si  tau(  20) = (   0.8750000   0.3750000   0.1250000  )
        21           Si  tau(  21) = (   0.3750000   0.8750000   0.1250000  )
        22           Si  tau(  22) = (   0.8750000   0.8750000   0.1250000  )
        23           Si  tau(  23) = (   0.3750000   0.3750000   0.6250000  )
        24           Si  tau(  24) = (   0.8750000   0.3750000   0.6250000  )
        25           Si  tau(  25) = (   0.3750000   0.8750000   0.6250000  )
        26           Si  tau(  26) = (   0.8750000   0.8750000   0.6250000  )
        27           Si  tau(  27) = (   0.1250000   0.1250000   0.1250000  )
        28           Si  tau(  28) = (   0.6250000   0.1250000   0.1250000  )
        29           Si  tau(  29) = (   0.1250000   0.6250000   0.1250000  )
        30           Si  tau(  30) = (   0.6250000   0.6250000   0.1250000  )
        31           Si  tau(  31) = (   0.1250000   0.1250000   0.6250000  )
        32           Si  tau(  32) = (   0.6250000   0.1250000   0.6250000  )
        33           Si  tau(  33) = (   0.1250000   0.6250000   0.6250000  )
        34           Si  tau(  34) = (   0.6250000   0.6250000   0.6250000  )
        35           Si  tau(  35) = (   0.3750000   0.1250000   0.3750000  )
        36           Si  tau(  36) = (   0.8750000   0.1250000   0.3750000  )
        37           Si  tau(  37) = (   0.3750000   0.6250000   0.3750000  )
        38           Si  tau(  38) = (   0.8750000   0.6250000   0.3750000  )
        39           Si  tau(  39) = (   0.1250000   0.3750000   0.3750000  )
        40           Si  tau(  40) = (   0.6250000   0.3750000   0.3750000  )
        41           Si  tau(  41) = (   0.1250000   0.8750000   0.3750000  )
        42           Si  tau(  42) = (   0.6250000   0.8750000   0.3750000  )

     number of k points=    36
                       cart. coord. in units 2pi/alat
        k(    1) = (   0.0833333   0.0833333   0.0833333), wk =   0.0370370
        k(    2) = (   0.0833333   0.0833333   0.2500000), wk =   0.0370370
        k(    3) = (   0.0833333   0.0833333   0.4166667), wk =   0.0370370
        k(    4) = (   0.0833333   0.2500000   0.2500000), wk =   0.0740741
        k(    5) = (   0.0833333   0.2500000   0.4166667), wk =   0.0740741
        k(    6) = (   0.0833333   0.4166667   0.4166667), wk =   0.0740741
        k(    7) = (   0.2500000   0.2500000   0.2500000), wk =   0.0370370
        k(    8) = (   0.2500000   0.2500000   0.4166667), wk =   0.0370370
        k(    9) = (   0.2500000   0.4166667   0.4166667), wk =   0.0740741
        k(   10) = (   0.4166667   0.4166667   0.4166667), wk =   0.0370370
        k(   11) = (   0.0833333  -0.0833333   0.0833333), wk =   0.0370370
        k(   12) = (   0.0833333  -0.0833333   0.2500000), wk =   0.0370370
        k(   13) = (   0.2500000  -0.0833333   0.0833333), wk =   0.0740741
        k(   14) = (  -0.2500000  -0.0833333  -0.0833333), wk =   0.0740741
        k(   15) = (   0.0833333  -0.0833333   0.4166667), wk =   0.0370370
        k(   16) = (   0.4166667  -0.0833333   0.0833333), wk =   0.0740741
        k(   17) = (  -0.4166667  -0.0833333  -0.0833333), wk =   0.0740741
        k(   18) = (   0.2500000  -0.0833333   0.2500000), wk =   0.0740741
        k(   19) = (   0.2500000  -0.2500000   0.0833333), wk =   0.0370370
        k(   20) = (  -0.2500000  -0.2500000  -0.0833333), wk =   0.0370370
        k(   21) = (   0.2500000  -0.0833333   0.4166667), wk =   0.0740741
        k(   22) = (   0.4166667  -0.2500000   0.0833333), wk =   0.0740741
        k(   23) = (  -0.4166667  -0.2500000  -0.0833333), wk =   0.0740741
        k(   24) = (  -0.0833333   0.4166667   0.2500000), wk =   0.0740741
        k(   25) = (  -0.0833333  -0.4166667  -0.2500000), wk =   0.0740741
        k(   26) = (   0.4166667  -0.0833333   0.4166667), wk =   0.0740741
        k(   27) = (   0.4166667  -0.4166667   0.0833333), wk =   0.0370370
        k(   28) = (  -0.4166667  -0.4166667  -0.0833333), wk =   0.0370370
        k(   29) = (   0.2500000  -0.2500000   0.2500000), wk =   0.0370370
        k(   30) = (   0.2500000  -0.2500000   0.4166667), wk =   0.0370370
        k(   31) = (   0.4166667  -0.2500000   0.2500000), wk =   0.0740741
        k(   32) = (  -0.4166667  -0.2500000  -0.2500000), wk =   0.0740741
        k(   33) = (   0.4166667  -0.2500000   0.4166667), wk =   0.0740741
        k(   34) = (   0.4166667  -0.4166667   0.2500000), wk =   0.0370370
        k(   35) = (  -0.4166667  -0.4166667  -0.2500000), wk =   0.0370370
        k(   36) = (   0.4166667  -0.4166667   0.4166667), wk =   0.0370370

     Initial potential from superposition of free atoms

     starting charge  167.97676, renormalised to  168.00000
     Starting wfcs are  168 randomized atomic wfcs

     Self-consistent Calculation

     iteration #  1     ecut=    70.00 Ry     beta= 0.70
     Davidson diagonalization with overlap
     ethr =  1.00E-02,  avg # of iterations =  2.0

     Threshold (ethr) on eigenvalues was too large:
     Diagonalizing with lowered threshold

     Davidson diagonalization with overlap
     ethr =  8.58E-04,  avg # of iterations =  3.2

     total energy              =    -326.27086623 Ry
     estimated scf accuracy    <       1.78983496 Ry

[...]

     iteration #  7     ecut=    70.00 Ry     beta= 0.70
     Davidson diagonalization with overlap
     c_bands:  1 eigenvalues not converged
     c_bands:  1 eigenvalues not converged
     c_bands:  1 eigenvalues not converged
     ethr =  4.97E-05,  avg # of iterations =  9.9

[...]

     iteration # 23     ecut=    70.00 Ry     beta= 0.70
     Davidson diagonalization with overlap
     ethr =  8.28E-09,  avg # of iterations =  3.1

[...]

     total energy              =    -327.03732715 Ry
     estimated scf accuracy    <       0.00000158 Ry

     iteration # 28     ecut=    70.00 Ry     beta= 0.70
     Davidson diagonalization with overlap
     c_bands:  1 eigenvalues not converged
     c_bands:  1 eigenvalues not converged
     c_bands:  1 eigenvalues not converged
     c_bands:  1 eigenvalues not converged
     c_bands:  1 eigenvalues not converged
     ethr =  9.39E-10,  avg # of iterations = 12.2

     End of self-consistent calculation

          k = 0.0833 0.0833 0.0833 ( 87340 PWs)   bands (ev):

    -8.6102  -7.7501  -7.7404  -7.7354  -7.1255  -7.0668  -6.9100  -6.7432
    -6.6830  -6.6107  -6.2979  -6.2820  -6.0247  -5.8338  -5.7949  -5.5687
    -5.4853  -5.2354  -4.7908  -4.6598  -4.5954  -4.5506  -4.4909  -4.4530
    -4.2868  -3.7835  -3.6871  -3.5443  -3.4444  -3.3001  -3.1991  -3.0893
    -3.0471  -2.9329  -2.7877  -2.2871  -2.1585  -2.0486  -1.5121  -1.4154
    -1.1917  -0.9011  -0.8332  -0.7739  -0.7510  -0.7329  -0.6016  -0.5679
    -0.4919  -0.4061  -0.2041  -0.0454   0.0127   0.0875   0.0927   0.2639
     0.3094   0.4134   0.5770   0.7006   0.7405   0.8269   0.8997   0.9249
     0.9612   0.9697   1.0955   1.1561   1.2367   1.2834   1.3998   1.5135
     1.5205   1.5793   1.6166   1.7395   1.8016   1.8372   1.9342   2.0641
     2.1132   2.1671   2.2500   2.2780

[...]

          k =-0.2500-0.0833-0.0833 ( 87298 PWs)   bands (ev):

[...]

          k =-0.4167-0.4167-0.2500 ( 87284 PWs)   bands (ev):

[...]

          k = 0.4167-0.4167 0.4167 ( 87182 PWs)   bands (ev):

    -8.5493  -7.8050  -7.7837  -7.7795  -7.2247  -7.2236  -7.0038  -6.5173
    -6.5020  -6.4918  -6.2480  -6.1905  -5.9487  -5.7371  -5.7030  -5.5303
    -5.4781  -5.3048  -4.9611  -4.9480  -4.8126  -4.6774  -4.6040  -4.5155
    -4.3661  -3.7534  -3.6157  -3.5487  -3.2798  -3.1989  -3.0050  -2.9100
    -2.8675  -2.7563  -2.6369  -2.5360  -2.2611  -2.2273  -1.6635  -1.5611
    -1.5407  -0.9750  -0.8859  -0.7968  -0.7104  -0.6059  -0.4994  -0.4711
    -0.4028  -0.2344  -0.1821  -0.0634  -0.0213   0.1999   0.2329   0.2411
     0.3495   0.4840   0.6608   0.6774   0.7213   0.7874   0.8443   0.9402
     0.9416   1.0391   1.0592   1.2268   1.2752   1.3162   1.3439   1.4319
     1.4914   1.6557   1.6623   1.7929   1.8562   1.8754   1.9458   2.0518
     2.0989   2.2025   2.2305   2.2511

     highest occupied level (ev):     2.3940

!    total energy              =    -327.03732741 Ry
     estimated scf accuracy    <       0.00000012 Ry

     The total energy is the sum of the following terms:
     one-electron contribution =     -81.48807904 Ry
     hartree contribution      =      90.16644186 Ry
     xc contribution           =     -94.38467230 Ry
     ewald contribution        =    -241.33101794 Ry

     convergence has been achieved in  28 iterations

     Forces acting on atoms (cartesian axes, Ry/au):

     atom    1 type  1   force =    -0.00158864   -0.00158864   -0.00737961
     atom    2 type  1   force =    -0.01281670    0.01281670    0.00067282
     atom    3 type  1   force =     0.01281670   -0.01281670    0.00067282
     atom    4 type  1   force =     0.00158864    0.00158864   -0.00737961
     atom    5 type  1   force =    -0.00162753   -0.00162753   -0.00485091
     atom    6 type  1   force =    -0.00654728    0.00654728    0.00097117
     atom    7 type  1   force =     0.00654728   -0.00654728    0.00097117
     atom    8 type  1   force =     0.00162753    0.00162753   -0.00485091
     atom    9 type  1   force =     0.00000000    0.00000000   -0.02932377
     atom   10 type  1   force =     0.00000000    0.00000000    0.00337661
     atom   11 type  1   force =     0.00140892   -0.00070233   -0.00089946
     atom   12 type  1   force =    -0.00140892    0.00070233   -0.00089946
     atom   13 type  1   force =     0.00826850    0.01123847    0.01920583
     atom   14 type  1   force =    -0.00826850   -0.01123847    0.01920583
     atom   15 type  1   force =    -0.00070233    0.00140892   -0.00089946
     atom   16 type  1   force =     0.00070233   -0.00140892   -0.00089946
     atom   17 type  1   force =     0.01123847    0.00826850    0.01920583
     atom   18 type  1   force =    -0.01123847   -0.00826850    0.01920583
     atom   19 type  1   force =    -0.00413076   -0.00413076   -0.00779305
     atom   20 type  1   force =     0.01126730   -0.02274270    0.00320903
     atom   21 type  1   force =    -0.02274270    0.01126730    0.00320903
     atom   22 type  1   force =    -0.00524686   -0.00524686    0.01067853
     atom   23 type  1   force =    -0.00244075   -0.00244075   -0.00225686
     atom   24 type  1   force =     0.02334129    0.00731923   -0.00525286
     atom   25 type  1   force =     0.00731923    0.02334129   -0.00525286
     atom   26 type  1   force =     0.01082457    0.01082457   -0.00532009
     atom   27 type  1   force =     0.00524686    0.00524686    0.01067853
     atom   28 type  1   force =     0.02274270   -0.01126730    0.00320903
     atom   29 type  1   force =    -0.01126730    0.02274270    0.00320903
     atom   30 type  1   force =     0.00413076    0.00413076   -0.00779305
     atom   31 type  1   force =    -0.01082457   -0.01082457   -0.00532009
     atom   32 type  1   force =    -0.00731923   -0.02334129   -0.00525286
     atom   33 type  1   force =    -0.02334129   -0.00731923   -0.00525286
     atom   34 type  1   force =     0.00244075    0.00244075   -0.00225686
     atom   35 type  1   force =    -0.00620814   -0.02625029    0.00173594
     atom   36 type  1   force =     0.01232659   -0.01232659   -0.01061304
     atom   37 type  1   force =    -0.00269917    0.00269917    0.00286767
     atom   38 type  1   force =     0.02625029    0.00620814    0.00173594
     atom   39 type  1   force =    -0.02625029   -0.00620814    0.00173594
     atom   40 type  1   force =     0.00269917   -0.00269917    0.00286767
     atom   41 type  1   force =    -0.01232659    0.01232659   -0.01061304
     atom   42 type  1   force =     0.00620814    0.02625029    0.00173594

     Total force =     0.118982     Total SCF correction =     0.000504

     Computing stress (Cartesian axis) and pressure

          total   stress  (Ry/bohr**3)                   (kbar)     P=      -34.01
  -0.00024590   0.00000317   0.00000000          -36.17        0.47        0.00
   0.00000317  -0.00024590   0.00000000            0.47      -36.17        0.00
   0.00000000   0.00000000  -0.00020170            0.00        0.00      -29.67

     Writing output data file ./Si64.save/

     General routines

     Parallel routines

   This run was terminated on:  12:31:41  24Feb2022

   JOB DONE.