     Program PWSCF v.6.7MaX starts on 23Feb2022 at 17:52:33

     R & G space division:  proc/nbgrp/npool/nimage =      36
     Waiting for input...
     Reading input from standard input

     Current dimensions of program PWSCF are:
     Max number of different atomic species (ntypx) = 10
     Max number of k-points (npk) =  40000
     Max angular momentum in pseudopotentials (lmaxx) =  3

     Subspace diagonalization in iterative solution of the eigenvalue problem:
     a serial algorithm will be used

     Message from routine setup:
     using ibrav=0 with symmetry is DISCOURAGED, use correct ibrav instead

     bravais-lattice index     =            0
     lattice parameter (alat)  =      20.6660  a.u.
     unit-cell volume          =    8826.0878 (a.u.)^3
     number of atoms/cell      =           42
     number of atomic types    =            1
     number of electrons       =       168.00
     number of Kohn-Sham states=           84
     kinetic-energy cutoff     =      70.0000  Ry
     charge density cutoff     =     280.0000  Ry
     scf convergence threshold =      1.0E-06
     mixing beta               =       0.7000
     number of iterations used =            8  plain     mixing
     Exchange-correlation=  SLA  PW   PBE  PBE
                           (   1   4   3   4   0   0   0)

     celldm(1)=  20.665984  celldm(2)=   0.000000  celldm(3)=   0.000000
     celldm(4)=   0.000000  celldm(5)=   0.000000  celldm(6)=   0.000000

     crystal axes: (cart. coord. in units of alat)
               a(1) = (   1.000000   0.000000   0.000000 )
               a(2) = (   0.000000   1.000000   0.000000 )
               a(3) = (   0.000000   0.000000   1.000000 )

     reciprocal axes: (cart. coord. in units 2 pi/alat)
               b(1) = (  1.000000  0.000000  0.000000 )
               b(2) = (  0.000000  1.000000  0.000000 )
               b(3) = (  0.000000  0.000000  1.000000 )

     PseudoPot. # 1 for Si read from file:
     ./Si.pbe-rrkj.UPF
     MD5 check sum: cf7ab5690cd9a85b22c4813f7e365554
     Pseudo is Norm-conserving, Zval =  4.0
     Generated by new atomic code, or converted to UPF format
     Using radial grid of  883 points,  3 beta functions with:
                l(1) =   0
                l(2) =   0
                l(3) =   1

     atomic species   valence    mass     pseudopotential
        Si             4.00    28.08600     Si( 1.00)

      4 Sym. Ops. (no inversion) found

   Cartesian axes

     site n.     atom                  positions (alat units)
         1           Si  tau(   1) = (   0.2500000   0.2500000   0.0000000  )
         2           Si  tau(   2) = (   0.7500000   0.2500000   0.0000000  )
         3           Si  tau(   3) = (   0.2500000   0.7500000   0.0000000  )
         4           Si  tau(   4) = (   0.7500000   0.7500000   0.0000000  )
         5           Si  tau(   5) = (   0.2500000   0.2500000   0.5000000  )
         6           Si  tau(   6) = (   0.7500000   0.2500000   0.5000000  )
         7           Si  tau(   7) = (   0.2500000   0.7500000   0.5000000  )
         8           Si  tau(   8) = (   0.7500000   0.7500000   0.5000000  )
         9           Si  tau(   9) = (   0.5000000   0.5000000   0.0000000  )
        10           Si  tau(  10) = (   0.5000000   0.5000000   0.5000000  )
        11           Si  tau(  11) = (   0.2500000   0.5000000   0.2500000  )
        12           Si  tau(  12) = (   0.7500000   0.5000000   0.2500000  )
        13           Si  tau(  13) = (   0.2500000   0.5000000   0.7500000  )
        14           Si  tau(  14) = (   0.7500000   0.5000000   0.7500000  )
        15           Si  tau(  15) = (   0.5000000   0.2500000   0.2500000  )
        16           Si  tau(  16) = (   0.5000000   0.7500000   0.2500000  )
        17           Si  tau(  17) = (   0.5000000   0.2500000   0.7500000  )
        18           Si  tau(  18) = (   0.5000000   0.7500000   0.7500000  )
        19           Si  tau(  19) = (   0.3750000   0.3750000   0.1250000  )
        20           Si  tau(  20) = (   0.8750000   0.3750000   0.1250000  )
        21           Si  tau(  21) = (   0.3750000   0.8750000   0.1250000  )
        22           Si  tau(  22) = (   0.8750000   0.8750000   0.1250000  )
        23           Si  tau(  23) = (   0.3750000   0.3750000   0.6250000  )
        24           Si  tau(  24) = (   0.8750000   0.3750000   0.6250000  )
        25           Si  tau(  25) = (   0.3750000   0.8750000   0.6250000  )
        26           Si  tau(  26) = (   0.8750000   0.8750000   0.6250000  )
        27           Si  tau(  27) = (   0.1250000   0.1250000   0.1250000  )
        28           Si  tau(  28) = (   0.6250000   0.1250000   0.1250000  )
        29           Si  tau(  29) = (   0.1250000   0.6250000   0.1250000  )
        30           Si  tau(  30) = (   0.6250000   0.6250000   0.1250000  )
        31           Si  tau(  31) = (   0.1250000   0.1250000   0.6250000  )
        32           Si  tau(  32) = (   0.6250000   0.1250000   0.6250000  )
        33           Si  tau(  33) = (   0.1250000   0.6250000   0.6250000  )
        34           Si  tau(  34) = (   0.6250000   0.6250000   0.6250000  )
        35           Si  tau(  35) = (   0.3750000   0.1250000   0.3750000  )
        36           Si  tau(  36) = (   0.8750000   0.1250000   0.3750000  )
        37           Si  tau(  37) = (   0.3750000   0.6250000   0.3750000  )
        38           Si  tau(  38) = (   0.8750000   0.6250000   0.3750000  )
        39           Si  tau(  39) = (   0.1250000   0.3750000   0.3750000  )
        40           Si  tau(  40) = (   0.6250000   0.3750000   0.3750000  )
        41           Si  tau(  41) = (   0.1250000   0.8750000   0.3750000  )
        42           Si  tau(  42) = (   0.6250000   0.8750000   0.3750000  )

     number of k points=     2
                       cart. coord. in units 2pi/alat
        k(    1) = (   0.2500000   0.2500000   0.2500000), wk =   1.0000000
        k(    2) = (   0.2500000  -0.2500000   0.2500000), wk =   1.0000000

     Initial potential from superposition of free atoms

     starting charge  167.97676, renormalised to  168.00000
     Starting wfcs are  168 randomized atomic wfcs

     Self-consistent Calculation

     iteration #  1     ecut=    70.00 Ry     beta= 0.70
     Davidson diagonalization with overlap
     ethr =  1.00E-02,  avg # of iterations =  2.0

     Threshold (ethr) on eigenvalues was too large:
     Diagonalizing with lowered threshold

     Davidson diagonalization with overlap
     ethr =  8.37E-04,  avg # of iterations =  4.0

     total energy              =    -326.29614145 Ry
     estimated scf accuracy    <       1.76580066 Ry

[...]

     iteration # 11     ecut=    70.00 Ry     beta= 0.70
     Davidson diagonalization with overlap
     c_bands:  1 eigenvalues not converged
     ethr =  5.36E-06,  avg # of iterations = 16.5

[...]

     iteration # 35     ecut=    70.00 Ry     beta= 0.70
     Davidson diagonalization with overlap
     ethr =  4.29E-09,  avg # of iterations = 13.5

[...]

     total energy              =    -327.03895501 Ry
     estimated scf accuracy    <       0.00000906 Ry

     iteration # 40     ecut=    70.00 Ry     beta= 0.70
     Davidson diagonalization with overlap
     c_bands:  1 eigenvalues not converged
     ethr =  6.13E-10,  avg # of iterations = 14.5

     End of self-consistent calculation

          k = 0.2500 0.2500 0.2500 ( 87317 PWs)   bands (ev):

    -8.5786  -7.7831  -7.7589  -7.7557  -7.1877  -7.1285  -6.9647  -6.6251
    -6.5849  -6.5443  -6.2910  -6.2342  -5.9942  -5.7926  -5.7778  -5.4916
    -5.4820  -5.2393  -4.8733  -4.8074  -4.7034  -4.6186  -4.5837  -4.5188
    -4.2931  -3.7711  -3.5702  -3.5688  -3.4193  -3.1409  -3.1338  -3.0257
    -2.9815  -2.8375  -2.5974  -2.4017  -2.2932  -2.1572  -1.5754  -1.5001
    -1.3523  -0.9072  -0.8775  -0.7837  -0.7631  -0.6478  -0.6192  -0.5516
    -0.3757  -0.2781  -0.1816  -0.0632  -0.0002   0.0652   0.2000   0.2074
     0.2975   0.3849   0.5480   0.6815   0.6918   0.7845   0.8083   0.9430
     1.0354   1.0562   1.1835   1.2244   1.3111   1.3720   1.4717   1.6033
     1.6188   1.7132   1.7347   1.7824   1.8707   1.9297   1.9581   2.0406
     2.0744   2.1703   2.1853   2.2821

          k = 0.2500-0.2500 0.2500 ( 87317 PWs)   bands (ev):

    -8.5785  -7.7867  -7.7590  -7.7520  -7.1695  -7.1491  -6.9637  -6.6200
    -6.5862  -6.5472  -6.2818  -6.2339  -6.0104  -5.7720  -5.7552  -5.5714
    -5.4701  -5.2448  -4.8529  -4.8239  -4.6983  -4.5557  -4.5419  -4.4888
    -4.3261  -3.8751  -3.6591  -3.5778  -3.3141  -3.1376  -3.1313  -3.0276
    -2.9717  -2.8126  -2.6926  -2.4152  -2.1610  -2.1280  -1.6149  -1.4761
    -1.3785  -0.9049  -0.8908  -0.8236  -0.7396  -0.6381  -0.5767  -0.5532
    -0.4559  -0.2293  -0.1759  -0.0905  -0.0127   0.0961   0.1263   0.1800
     0.3290   0.4400   0.5567   0.6179   0.7025   0.8350   0.9270   0.9467
     1.0091   1.0104   1.1567   1.2156   1.2207   1.3138   1.4607   1.5328
     1.6425   1.7264   1.7387   1.8065   1.8124   1.9145   1.9664   2.0207
     2.1089   2.2936   2.3239   2.3915

     highest occupied level (ev):     2.3915

!    total energy              =    -327.03895511 Ry
     estimated scf accuracy    <       0.00000065 Ry

     The total energy is the sum of the following terms:
     one-electron contribution =     -81.50978962 Ry
     hartree contribution      =      90.20114852 Ry
     xc contribution           =     -94.39929608 Ry
     ewald contribution        =    -241.33101794 Ry

     convergence has been achieved in  40 iterations

     Forces acting on atoms (cartesian axes, Ry/au):

     atom    1 type  1   force =     0.00005967    0.00005967   -0.00623564
     atom    2 type  1   force =    -0.01377688    0.01377688    0.00121162
     atom    3 type  1   force =     0.01377688   -0.01377688    0.00121162
     atom    4 type  1   force =    -0.00005967   -0.00005967   -0.00623564
     atom    5 type  1   force =    -0.00135217   -0.00135217   -0.00608508
     atom    6 type  1   force =    -0.00646992    0.00646992   -0.00113722
     atom    7 type  1   force =     0.00646992   -0.00646992   -0.00113722
     atom    8 type  1   force =     0.00135217    0.00135217   -0.00608508
     atom    9 type  1   force =     0.00000000    0.00000000   -0.03069681
     atom   10 type  1   force =     0.00000000    0.00000000    0.00216022
     atom   11 type  1   force =     0.00142741   -0.00184313    0.00082519
     atom   12 type  1   force =    -0.00142741    0.00184313    0.00082519
     atom   13 type  1   force =     0.00795001    0.00947687    0.01842074
     atom   14 type  1   force =    -0.00795001   -0.00947687    0.01842074
     atom   15 type  1   force =    -0.00184313    0.00142741    0.00082519
     atom   16 type  1   force =     0.00184313   -0.00142741    0.00082519
     atom   17 type  1   force =     0.00947687    0.00795001    0.01842074
     atom   18 type  1   force =    -0.00947687   -0.00795001    0.01842074
     atom   19 type  1   force =    -0.00454731   -0.00454731   -0.00788019
     atom   20 type  1   force =     0.01298118   -0.02348207    0.00279168
     atom   21 type  1   force =    -0.02348207    0.01298118    0.00279168
     atom   22 type  1   force =    -0.00495515   -0.00495515    0.01133062
     atom   23 type  1   force =    -0.00133255   -0.00133255   -0.00062835
     atom   24 type  1   force =     0.02475593    0.00747727   -0.00484348
     atom   25 type  1   force =     0.00747727    0.02475593   -0.00484348
     atom   26 type  1   force =     0.01056376    0.01056376   -0.00417052
     atom   27 type  1   force =     0.00495515    0.00495515    0.01133062
     atom   28 type  1   force =     0.02348207   -0.01298118    0.00279168
     atom   29 type  1   force =    -0.01298118    0.02348207    0.00279168
     atom   30 type  1   force =     0.00454731    0.00454731   -0.00788019
     atom   31 type  1   force =    -0.01056376   -0.01056376   -0.00417052
     atom   32 type  1   force =    -0.00747727   -0.02475593   -0.00484348
     atom   33 type  1   force =    -0.02475593   -0.00747727   -0.00484348
     atom   34 type  1   force =     0.00133255    0.00133255   -0.00062835
     atom   35 type  1   force =    -0.00477984   -0.02721910    0.00075316
     atom   36 type  1   force =     0.01224698   -0.01224698   -0.01094584
     atom   37 type  1   force =    -0.00281186    0.00281186    0.00291431
     atom   38 type  1   force =     0.02721910    0.00477984    0.00075316
     atom   39 type  1   force =    -0.02721910   -0.00477984    0.00075316
     atom   40 type  1   force =     0.00281186   -0.00281186    0.00291431
     atom   41 type  1   force =    -0.01224698    0.01224698   -0.01094584
     atom   42 type  1   force =     0.00477984    0.02721910    0.00075316

     Total force =     0.121277     Total SCF correction =     0.001097

     Computing stress (Cartesian axis) and pressure

          total   stress  (Ry/bohr**3)                   (kbar)     P=      -33.47
  -0.00024164   0.00000523   0.00000000          -35.55        0.77        0.00
   0.00000523  -0.00024164   0.00000000            0.77      -35.55        0.00
   0.00000000   0.00000000  -0.00019934            0.00        0.00      -29.32

     Writing output data file ./Si64.save/

     General routines

     Parallel routines

   This run was terminated on:  18:14: 1  23Feb2022

   JOB DONE.