     Program PWSCF v.6.7MaX starts on 23Feb2022 at 20:43: 1

     R & G space division:  proc/nbgrp/npool/nimage =      36
     Waiting for input...
     Reading input from standard input

     Current dimensions of program PWSCF are:
     Max number of different atomic species (ntypx) = 10
     Max number of k-points (npk) =  40000
     Max angular momentum in pseudopotentials (lmaxx) =  3

     Subspace diagonalization in iterative solution of the eigenvalue problem:
     a serial algorithm will be used

     Message from routine setup:
     using ibrav=0 with symmetry is DISCOURAGED, use correct ibrav instead

     bravais-lattice index     =            0
     lattice parameter (alat)  =      20.6660  a.u.
     unit-cell volume          =    8826.0878 (a.u.)^3
     number of atoms/cell      =           42
     number of atomic types    =            1
     number of electrons       =       168.00
     number of Kohn-Sham states=           84
     kinetic-energy cutoff     =      70.0000  Ry
     charge density cutoff     =     280.0000  Ry
     scf convergence threshold =      1.0E-06
     mixing beta               =       0.7000
     number of iterations used =            8  plain     mixing
     Exchange-correlation=  SLA  PW   PBE  PBE
                           (   1   4   3   4   0   0   0)

     celldm(1)=  20.665984  celldm(2)=   0.000000  celldm(3)=   0.000000
     celldm(4)=   0.000000  celldm(5)=   0.000000  celldm(6)=   0.000000

     crystal axes: (cart. coord. in units of alat)
               a(1) = (   1.000000   0.000000   0.000000 )
               a(2) = (   0.000000   1.000000   0.000000 )
               a(3) = (   0.000000   0.000000   1.000000 )

     reciprocal axes: (cart. coord. in units 2 pi/alat)
               b(1) = (  1.000000  0.000000  0.000000 )
               b(2) = (  0.000000  1.000000  0.000000 )
               b(3) = (  0.000000  0.000000  1.000000 )

     PseudoPot. # 1 for Si read from file:
     ./Si.pbe-rrkj.UPF
     MD5 check sum: cf7ab5690cd9a85b22c4813f7e365554
     Pseudo is Norm-conserving, Zval =  4.0
     Generated by new atomic code, or converted to UPF format
     Using radial grid of  883 points,  3 beta functions with:
                l(1) =   0
                l(2) =   0
                l(3) =   1

     atomic species   valence    mass     pseudopotential
        Si             4.00    28.08600     Si( 1.00)

      4 Sym. Ops. (no inversion) found

   Cartesian axes

     site n.     atom                  positions (alat units)
         1           Si  tau(   1) = (   0.2500000   0.2500000   0.0000000  )
         2           Si  tau(   2) = (   0.7500000   0.2500000   0.0000000  )
         3           Si  tau(   3) = (   0.2500000   0.7500000   0.0000000  )
         4           Si  tau(   4) = (   0.7500000   0.7500000   0.0000000  )
         5           Si  tau(   5) = (   0.2500000   0.2500000   0.5000000  )
         6           Si  tau(   6) = (   0.7500000   0.2500000   0.5000000  )
         7           Si  tau(   7) = (   0.2500000   0.7500000   0.5000000  )
         8           Si  tau(   8) = (   0.7500000   0.7500000   0.5000000  )
         9           Si  tau(   9) = (   0.5000000   0.5000000   0.0000000  )
        10           Si  tau(  10) = (   0.5000000   0.5000000   0.5000000  )
        11           Si  tau(  11) = (   0.2500000   0.5000000   0.2500000  )
        12           Si  tau(  12) = (   0.7500000   0.5000000   0.2500000  )
        13           Si  tau(  13) = (   0.2500000   0.5000000   0.7500000  )
        14           Si  tau(  14) = (   0.7500000   0.5000000   0.7500000  )
        15           Si  tau(  15) = (   0.5000000   0.2500000   0.2500000  )
        16           Si  tau(  16) = (   0.5000000   0.7500000   0.2500000  )
        17           Si  tau(  17) = (   0.5000000   0.2500000   0.7500000  )
        18           Si  tau(  18) = (   0.5000000   0.7500000   0.7500000  )
        19           Si  tau(  19) = (   0.3750000   0.3750000   0.1250000  )
        20           Si  tau(  20) = (   0.8750000   0.3750000   0.1250000  )
        21           Si  tau(  21) = (   0.3750000   0.8750000   0.1250000  )
        22           Si  tau(  22) = (   0.8750000   0.8750000   0.1250000  )
        23           Si  tau(  23) = (   0.3750000   0.3750000   0.6250000  )
        24           Si  tau(  24) = (   0.8750000   0.3750000   0.6250000  )
        25           Si  tau(  25) = (   0.3750000   0.8750000   0.6250000  )
        26           Si  tau(  26) = (   0.8750000   0.8750000   0.6250000  )
        27           Si  tau(  27) = (   0.1250000   0.1250000   0.1250000  )
        28           Si  tau(  28) = (   0.6250000   0.1250000   0.1250000  )
        29           Si  tau(  29) = (   0.1250000   0.6250000   0.1250000  )
        30           Si  tau(  30) = (   0.6250000   0.6250000   0.1250000  )
        31           Si  tau(  31) = (   0.1250000   0.1250000   0.6250000  )
        32           Si  tau(  32) = (   0.6250000   0.1250000   0.6250000  )
        33           Si  tau(  33) = (   0.1250000   0.6250000   0.6250000  )
        34           Si  tau(  34) = (   0.6250000   0.6250000   0.6250000  )
        35           Si  tau(  35) = (   0.3750000   0.1250000   0.3750000  )
        36           Si  tau(  36) = (   0.8750000   0.1250000   0.3750000  )
        37           Si  tau(  37) = (   0.3750000   0.6250000   0.3750000  )
        38           Si  tau(  38) = (   0.8750000   0.6250000   0.3750000  )
        39           Si  tau(  39) = (   0.1250000   0.3750000   0.3750000  )
        40           Si  tau(  40) = (   0.6250000   0.3750000   0.3750000  )
        41           Si  tau(  41) = (   0.1250000   0.8750000   0.3750000  )
        42           Si  tau(  42) = (   0.6250000   0.8750000   0.3750000  )

     number of k points=    27
                       cart. coord. in units 2pi/alat
        k(    1) = (   0.1000000   0.1000000   0.1000000), wk =   0.0640000
        k(    2) = (   0.1000000   0.1000000   0.3000000), wk =   0.0640000
        k(    3) = (   0.1000000   0.1000000  -0.5000000), wk =   0.0320000
        k(    4) = (   0.1000000   0.3000000   0.3000000), wk =   0.1280000
        k(    5) = (   0.1000000   0.3000000  -0.5000000), wk =   0.0640000
        k(    6) = (   0.1000000  -0.5000000  -0.5000000), wk =   0.0640000
        k(    7) = (   0.3000000   0.3000000   0.3000000), wk =   0.0640000
        k(    8) = (   0.3000000   0.3000000  -0.5000000), wk =   0.0320000
        k(    9) = (   0.3000000  -0.5000000  -0.5000000), wk =   0.0640000
        k(   10) = (  -0.5000000  -0.5000000  -0.5000000), wk =   0.0160000
        k(   11) = (   0.1000000  -0.1000000   0.1000000), wk =   0.0640000
        k(   12) = (   0.1000000  -0.1000000   0.3000000), wk =   0.0640000
        k(   13) = (   0.3000000  -0.1000000   0.1000000), wk =   0.1280000
        k(   14) = (  -0.3000000  -0.1000000  -0.1000000), wk =   0.1280000
        k(   15) = (   0.1000000  -0.1000000  -0.5000000), wk =   0.0320000
        k(   16) = (  -0.5000000  -0.1000000   0.1000000), wk =   0.1280000
        k(   17) = (   0.3000000  -0.1000000   0.3000000), wk =   0.1280000
        k(   18) = (   0.3000000  -0.3000000   0.1000000), wk =   0.0640000
        k(   19) = (  -0.3000000  -0.3000000  -0.1000000), wk =   0.0640000
        k(   20) = (   0.3000000  -0.1000000  -0.5000000), wk =   0.0640000
        k(   21) = (  -0.5000000  -0.3000000   0.1000000), wk =   0.1280000
        k(   22) = (  -0.1000000  -0.5000000   0.3000000), wk =   0.1280000
        k(   23) = (  -0.5000000   0.5000000   0.1000000), wk =   0.0320000
        k(   24) = (   0.3000000  -0.3000000   0.3000000), wk =   0.0640000
        k(   25) = (   0.3000000  -0.3000000  -0.5000000), wk =   0.0320000
        k(   26) = (  -0.5000000  -0.3000000   0.3000000), wk =   0.1280000
        k(   27) = (  -0.5000000   0.5000000   0.3000000), wk =   0.0320000

     Initial potential from superposition of free atoms

     starting charge  167.97676, renormalised to  168.00000
     Starting wfcs are  168 randomized atomic wfcs

     Self-consistent Calculation

     iteration #  1     ecut=    70.00 Ry     beta= 0.70
     Davidson diagonalization with overlap
     ethr =  1.00E-02,  avg # of iterations =  2.0

     Threshold (ethr) on eigenvalues was too large:
     Diagonalizing with lowered threshold

     Davidson diagonalization with overlap
     ethr =  8.52E-04,  avg # of iterations =  3.3

     total energy              =    -326.27673772 Ry
     estimated scf accuracy    <       1.78381153 Ry

     iteration #  2     ecut=    70.00 Ry     beta= 0.70
     Davidson diagonalization with overlap
     c_bands:  1 eigenvalues not converged
     c_bands:  1 eigenvalues not converged
     ethr =  1.06E-03,  avg # of iterations = 14.1

[...]

     iteration # 34     ecut=    70.00 Ry     beta= 0.70
     Davidson diagonalization with overlap
     ethr =  2.86E-09,  avg # of iterations =  1.1

     total energy              =    -327.03761337 Ry
     estimated scf accuracy    <       0.00000385 Ry

     iteration # 35     ecut=    70.00 Ry     beta= 0.70
     Davidson diagonalization with overlap
     c_bands:  1 eigenvalues not converged
     c_bands:  1 eigenvalues not converged
     ethr =  2.29E-09,  avg # of iterations =  9.8

     End of self-consistent calculation

          k = 0.1000 0.1000 0.1000 ( 87361 PWs)   bands (ev):

    -8.6074  -7.7512  -7.7411  -7.7377  -7.1301  -7.0697  -6.9131  -6.7343
    -6.6768  -6.6057  -6.2981  -6.2789  -6.0232  -5.8296  -5.7973  -5.5624
    -5.4835  -5.2334  -4.7966  -4.6714  -4.5930  -4.5614  -4.5026  -4.4593
    -4.2852  -3.7830  -3.6759  -3.5461  -3.4369  -3.2991  -3.1874  -3.0904
    -3.0422  -2.9259  -2.7713  -2.2948  -2.1690  -2.0548  -1.5152  -1.4221
    -1.2020  -0.9025  -0.8373  -0.7709  -0.7486  -0.7282  -0.6086  -0.5720
    -0.4814  -0.3917  -0.2060  -0.0394   0.0140   0.0815   0.0975   0.2502
     0.3163   0.4095   0.5714   0.6828   0.7448   0.8186   0.9007   0.9022
     0.9691   0.9781   1.1130   1.1899   1.2271   1.3158   1.4084   1.5079
     1.5302   1.5950   1.6396   1.7392   1.8189   1.8387   1.9407   2.0725
     2.0808   2.1793   2.2484   2.2976

[...]

          k =-0.5000-0.5000-0.5000 ( 87128 PWs)   bands (ev):

[...]

          k = 0.3000-0.3000-0.5000 ( 87270 PWs)   bands (ev):

[...]

          k =-0.5000 0.5000 0.3000 ( 87248 PWs)   bands (ev):

    -8.5514  -7.8113  -7.7912  -7.7555  -7.2378  -7.2080  -6.9930  -6.5423
    -6.4899  -6.4781  -6.2776  -6.2127  -5.9729  -5.7283  -5.6848  -5.5026
    -5.4770  -5.2354  -4.9826  -4.9671  -4.8197  -4.7131  -4.6163  -4.5151
    -4.3621  -3.6999  -3.5979  -3.5669  -3.2391  -3.2282  -3.0419  -2.9063
    -2.8293  -2.7614  -2.6886  -2.4919  -2.2833  -2.2365  -1.7010  -1.5906
    -1.4514  -0.9858  -0.8451  -0.7517  -0.7160  -0.6391  -0.5641  -0.5193
    -0.3175  -0.2132  -0.1320  -0.0824  -0.0273   0.1661   0.2104   0.2480
     0.3600   0.4820   0.5430   0.6004   0.6965   0.7507   0.8366   0.9208
     0.9882   1.1316   1.1430   1.1843   1.2083   1.3486   1.4424   1.4634
     1.5201   1.6874   1.6945   1.7808   1.8170   1.8583   1.9862   2.0697
     2.0968   2.1760   2.1965   2.2647

     highest occupied level (ev):     2.3794

!    total energy              =    -327.03761353 Ry
     estimated scf accuracy    <       0.00000029 Ry

     The total energy is the sum of the following terms:
     one-electron contribution =     -81.49219074 Ry
     hartree contribution      =      90.17171362 Ry
     xc contribution           =     -94.38611847 Ry
     ewald contribution        =    -241.33101794 Ry

     convergence has been achieved in  35 iterations

     Forces acting on atoms (cartesian axes, Ry/au):

     atom    1 type  1   force =    -0.00160403   -0.00160403   -0.00707700
     atom    2 type  1   force =    -0.01310109    0.01310109    0.00044500
     atom    3 type  1   force =     0.01310109   -0.01310109    0.00044500
     atom    4 type  1   force =     0.00160403    0.00160403   -0.00707700
     atom    5 type  1   force =    -0.00177775   -0.00177775   -0.00478163
     atom    6 type  1   force =    -0.00665389    0.00665389    0.00042133
     atom    7 type  1   force =     0.00665389   -0.00665389    0.00042133
     atom    8 type  1   force =     0.00177775    0.00177775   -0.00478163
     atom    9 type  1   force =     0.00000000    0.00000000   -0.02931446
     atom   10 type  1   force =     0.00000000    0.00000000    0.00329118
     atom   11 type  1   force =     0.00142613   -0.00060549   -0.00098936
     atom   12 type  1   force =    -0.00142613    0.00060549   -0.00098936
     atom   13 type  1   force =     0.00840548    0.01122440    0.01904345
     atom   14 type  1   force =    -0.00840548   -0.01122440    0.01904345
     atom   15 type  1   force =    -0.00060549    0.00142613   -0.00098936
     atom   16 type  1   force =     0.00060549   -0.00142613   -0.00098936
     atom   17 type  1   force =     0.01122440    0.00840548    0.01904345
     atom   18 type  1   force =    -0.01122440   -0.00840548    0.01904345
     atom   19 type  1   force =    -0.00398947   -0.00398947   -0.00802019
     atom   20 type  1   force =     0.01154027   -0.02282775    0.00318065
     atom   21 type  1   force =    -0.02282775    0.01154027    0.00318065
     atom   22 type  1   force =    -0.00516146   -0.00516146    0.01051931
     atom   23 type  1   force =    -0.00211660   -0.00211660   -0.00206020
     atom   24 type  1   force =     0.02370368    0.00729894   -0.00514757
     atom   25 type  1   force =     0.00729894    0.02370368   -0.00514757
     atom   26 type  1   force =     0.01063296    0.01063296   -0.00540052
     atom   27 type  1   force =     0.00516146    0.00516146    0.01051931
     atom   28 type  1   force =     0.02282775   -0.01154027    0.00318065
     atom   29 type  1   force =    -0.01154027    0.02282775    0.00318065
     atom   30 type  1   force =     0.00398947    0.00398947   -0.00802019
     atom   31 type  1   force =    -0.01063296   -0.01063296   -0.00540052
     atom   32 type  1   force =    -0.00729894   -0.02370368   -0.00514757
     atom   33 type  1   force =    -0.02370368   -0.00729894   -0.00514757
     atom   34 type  1   force =     0.00211660    0.00211660   -0.00206020
     atom   35 type  1   force =    -0.00602221   -0.02659502    0.00185426
     atom   36 type  1   force =     0.01214976   -0.01214976   -0.01009391
     atom   37 type  1   force =    -0.00269183    0.00269183    0.00317658
     atom   38 type  1   force =     0.02659502    0.00602221    0.00185426
     atom   39 type  1   force =    -0.02659502   -0.00602221    0.00185426
     atom   40 type  1   force =     0.00269183   -0.00269183    0.00317658
     atom   41 type  1   force =    -0.01214976    0.01214976   -0.01009391
     atom   42 type  1   force =     0.00602221    0.02659502    0.00185426

     Total force =     0.119444     Total SCF correction =     0.000895

     Computing stress (Cartesian axis) and pressure

          total   stress  (Ry/bohr**3)                   (kbar)     P=      -33.96
  -0.00024472   0.00000291   0.00000000          -36.00        0.43        0.00
   0.00000291  -0.00024472   0.00000000            0.43      -36.00        0.00
   0.00000000   0.00000000  -0.00020323            0.00        0.00      -29.90

     Writing output data file ./Si64.save/

     General routines

     Parallel routines

   This run was terminated on:   0: 6:57  24Feb2022

   JOB DONE.