     Program PWSCF v.6.7MaX starts on 24Feb2022 at 12:31:41

     R & G space division:  proc/nbgrp/npool/nimage =      40
     Waiting for input...
     Reading input from standard input

     Current dimensions of program PWSCF are:
     Max number of different atomic species (ntypx) = 10
     Max number of k-points (npk) =  40000
     Max angular momentum in pseudopotentials (lmaxx) =  3

     Subspace diagonalization in iterative solution of the eigenvalue problem:
     a serial algorithm will be used

     Message from routine setup:
     using ibrav=0 with symmetry is DISCOURAGED, use correct ibrav instead

     bravais-lattice index     =            0
     lattice parameter (alat)  =      20.6660  a.u.
     unit-cell volume          =    8826.0878 (a.u.)^3
     number of atoms/cell      =           42
     number of atomic types    =            1
     number of electrons       =       168.00
     number of Kohn-Sham states=           84
     kinetic-energy cutoff     =      70.0000  Ry
     charge density cutoff     =     280.0000  Ry
     scf convergence threshold =      1.0E-06
     mixing beta               =       0.7000
     number of iterations used =            8  plain     mixing
     Exchange-correlation=  SLA  PW   PBE  PBE
                           (   1   4   3   4   0   0   0)

     celldm(1)=  20.665984  celldm(2)=   0.000000  celldm(3)=   0.000000
     celldm(4)=   0.000000  celldm(5)=   0.000000  celldm(6)=   0.000000

     crystal axes: (cart. coord. in units of alat)
               a(1) = (   1.000000   0.000000   0.000000 )
               a(2) = (   0.000000   1.000000   0.000000 )
               a(3) = (   0.000000   0.000000   1.000000 )

     reciprocal axes: (cart. coord. in units 2 pi/alat)
               b(1) = (  1.000000  0.000000  0.000000 )
               b(2) = (  0.000000  1.000000  0.000000 )
               b(3) = (  0.000000  0.000000  1.000000 )

     PseudoPot. # 1 for Si read from file:
     ./Si.pbe-rrkj.UPF
     MD5 check sum: cf7ab5690cd9a85b22c4813f7e365554
     Pseudo is Norm-conserving, Zval =  4.0
     Generated by new atomic code, or converted to UPF format
     Using radial grid of  883 points,  3 beta functions with:
                l(1) =   0
                l(2) =   0
                l(3) =   1

     atomic species   valence    mass     pseudopotential
        Si             4.00    28.08600     Si( 1.00)

      4 Sym. Ops. (no inversion) found

   Cartesian axes

     site n.     atom                  positions (alat units)
         1           Si  tau(   1) = (   0.2500000   0.2500000   0.0000000  )
         2           Si  tau(   2) = (   0.7500000   0.2500000   0.0000000  )
         3           Si  tau(   3) = (   0.2500000   0.7500000   0.0000000  )
         4           Si  tau(   4) = (   0.7500000   0.7500000   0.0000000  )
         5           Si  tau(   5) = (   0.2500000   0.2500000   0.5000000  )
         6           Si  tau(   6) = (   0.7500000   0.2500000   0.5000000  )
         7           Si  tau(   7) = (   0.2500000   0.7500000   0.5000000  )
         8           Si  tau(   8) = (   0.7500000   0.7500000   0.5000000  )
         9           Si  tau(   9) = (   0.5000000   0.5000000   0.0000000  )
        10           Si  tau(  10) = (   0.5000000   0.5000000   0.5000000  )
        11           Si  tau(  11) = (   0.2500000   0.5000000   0.2500000  )
        12           Si  tau(  12) = (   0.7500000   0.5000000   0.2500000  )
        13           Si  tau(  13) = (   0.2500000   0.5000000   0.7500000  )
        14           Si  tau(  14) = (   0.7500000   0.5000000   0.7500000  )
        15           Si  tau(  15) = (   0.5000000   0.2500000   0.2500000  )
        16           Si  tau(  16) = (   0.5000000   0.7500000   0.2500000  )
        17           Si  tau(  17) = (   0.5000000   0.2500000   0.7500000  )
        18           Si  tau(  18) = (   0.5000000   0.7500000   0.7500000  )
        19           Si  tau(  19) = (   0.3750000   0.3750000   0.1250000  )
        20           Si  tau(  20) = (   0.8750000   0.3750000   0.1250000  )
        21           Si  tau(  21) = (   0.3750000   0.8750000   0.1250000  )
        22           Si  tau(  22) = (   0.8750000   0.8750000   0.1250000  )
        23           Si  tau(  23) = (   0.3750000   0.3750000   0.6250000  )
        24           Si  tau(  24) = (   0.8750000   0.3750000   0.6250000  )
        25           Si  tau(  25) = (   0.3750000   0.8750000   0.6250000  )
        26           Si  tau(  26) = (   0.8750000   0.8750000   0.6250000  )
        27           Si  tau(  27) = (   0.1250000   0.1250000   0.1250000  )
        28           Si  tau(  28) = (   0.6250000   0.1250000   0.1250000  )
        29           Si  tau(  29) = (   0.1250000   0.6250000   0.1250000  )
        30           Si  tau(  30) = (   0.6250000   0.6250000   0.1250000  )
        31           Si  tau(  31) = (   0.1250000   0.1250000   0.6250000  )
        32           Si  tau(  32) = (   0.6250000   0.1250000   0.6250000  )
        33           Si  tau(  33) = (   0.1250000   0.6250000   0.6250000  )
        34           Si  tau(  34) = (   0.6250000   0.6250000   0.6250000  )
        35           Si  tau(  35) = (   0.3750000   0.1250000   0.3750000  )
        36           Si  tau(  36) = (   0.8750000   0.1250000   0.3750000  )
        37           Si  tau(  37) = (   0.3750000   0.6250000   0.3750000  )
        38           Si  tau(  38) = (   0.8750000   0.6250000   0.3750000  )
        39           Si  tau(  39) = (   0.1250000   0.3750000   0.3750000  )
        40           Si  tau(  40) = (   0.6250000   0.3750000   0.3750000  )
        41           Si  tau(  41) = (   0.1250000   0.8750000   0.3750000  )
        42           Si  tau(  42) = (   0.6250000   0.8750000   0.3750000  )

     number of k points=    64
                       cart. coord. in units 2pi/alat
        k(    1) = (   0.0714286   0.0714286   0.0714286), wk =   0.0233236
        k(    2) = (   0.0714286   0.0714286   0.2142857), wk =   0.0233236
        k(    3) = (   0.0714286   0.0714286   0.3571429), wk =   0.0233236
        k(    4) = (   0.0714286   0.0714286  -0.5000000), wk =   0.0116618
        k(    5) = (   0.0714286   0.2142857   0.2142857), wk =   0.0466472
        k(    6) = (   0.0714286   0.2142857   0.3571429), wk =   0.0466472
        k(    7) = (   0.0714286   0.2142857  -0.5000000), wk =   0.0233236
        k(    8) = (   0.0714286   0.3571429   0.3571429), wk =   0.0466472
        k(    9) = (   0.0714286   0.3571429  -0.5000000), wk =   0.0233236
        k(   10) = (   0.0714286  -0.5000000  -0.5000000), wk =   0.0233236
        k(   11) = (   0.2142857   0.2142857   0.2142857), wk =   0.0233236
        k(   12) = (   0.2142857   0.2142857   0.3571429), wk =   0.0233236
        k(   13) = (   0.2142857   0.2142857  -0.5000000), wk =   0.0116618
        k(   14) = (   0.2142857   0.3571429   0.3571429), wk =   0.0466472
        k(   15) = (   0.2142857   0.3571429  -0.5000000), wk =   0.0233236
        k(   16) = (   0.2142857  -0.5000000  -0.5000000), wk =   0.0233236
        k(   17) = (   0.3571429   0.3571429   0.3571429), wk =   0.0233236
        k(   18) = (   0.3571429   0.3571429  -0.5000000), wk =   0.0116618
        k(   19) = (   0.3571429  -0.5000000  -0.5000000), wk =   0.0233236
        k(   20) = (  -0.5000000  -0.5000000  -0.5000000), wk =   0.0058309
        k(   21) = (   0.0714286  -0.0714286   0.0714286), wk =   0.0233236
        k(   22) = (   0.0714286  -0.0714286   0.2142857), wk =   0.0233236
        k(   23) = (   0.2142857  -0.0714286   0.0714286), wk =   0.0466472
        k(   24) = (  -0.2142857  -0.0714286  -0.0714286), wk =   0.0466472
        k(   25) = (   0.0714286  -0.0714286   0.3571429), wk =   0.0233236
        k(   26) = (   0.3571429  -0.0714286   0.0714286), wk =   0.0466472
        k(   27) = (  -0.3571429  -0.0714286  -0.0714286), wk =   0.0466472
        k(   28) = (   0.0714286  -0.0714286  -0.5000000), wk =   0.0116618
        k(   29) = (  -0.5000000  -0.0714286   0.0714286), wk =   0.0466472
        k(   30) = (   0.2142857  -0.0714286   0.2142857), wk =   0.0466472
        k(   31) = (   0.2142857  -0.2142857   0.0714286), wk =   0.0233236
        k(   32) = (  -0.2142857  -0.2142857  -0.0714286), wk =   0.0233236
        k(   33) = (   0.2142857  -0.0714286   0.3571429), wk =   0.0466472
        k(   34) = (   0.3571429  -0.2142857   0.0714286), wk =   0.0466472
        k(   35) = (  -0.3571429  -0.2142857  -0.0714286), wk =   0.0466472
        k(   36) = (  -0.0714286   0.3571429   0.2142857), wk =   0.0466472
        k(   37) = (  -0.0714286  -0.3571429  -0.2142857), wk =   0.0466472
        k(   38) = (   0.2142857  -0.0714286  -0.5000000), wk =   0.0233236
        k(   39) = (  -0.5000000  -0.2142857   0.0714286), wk =   0.0466472
        k(   40) = (  -0.0714286  -0.5000000   0.2142857), wk =   0.0466472
        k(   41) = (   0.3571429  -0.0714286   0.3571429), wk =   0.0466472
        k(   42) = (   0.3571429  -0.3571429   0.0714286), wk =   0.0233236
        k(   43) = (  -0.3571429  -0.3571429  -0.0714286), wk =   0.0233236
        k(   44) = (   0.3571429  -0.0714286  -0.5000000), wk =   0.0233236
        k(   45) = (  -0.5000000  -0.3571429   0.0714286), wk =   0.0466472
        k(   46) = (  -0.0714286  -0.5000000   0.3571429), wk =   0.0466472
        k(   47) = (  -0.5000000   0.5000000   0.0714286), wk =   0.0116618
        k(   48) = (   0.2142857  -0.2142857   0.2142857), wk =   0.0233236
        k(   49) = (   0.2142857  -0.2142857   0.3571429), wk =   0.0233236
        k(   50) = (   0.3571429  -0.2142857   0.2142857), wk =   0.0466472
        k(   51) = (  -0.3571429  -0.2142857  -0.2142857), wk =   0.0466472
        k(   52) = (   0.2142857  -0.2142857  -0.5000000), wk =   0.0116618
        k(   53) = (  -0.5000000  -0.2142857   0.2142857), wk =   0.0466472
        k(   54) = (   0.3571429  -0.2142857   0.3571429), wk =   0.0466472
        k(   55) = (   0.3571429  -0.3571429   0.2142857), wk =   0.0233236
        k(   56) = (  -0.3571429  -0.3571429  -0.2142857), wk =   0.0233236
        k(   57) = (   0.3571429  -0.2142857  -0.5000000), wk =   0.0233236
        k(   58) = (  -0.5000000  -0.3571429   0.2142857), wk =   0.0466472
        k(   59) = (  -0.2142857  -0.5000000   0.3571429), wk =   0.0466472
        k(   60) = (  -0.5000000   0.5000000   0.2142857), wk =   0.0116618
        k(   61) = (   0.3571429  -0.3571429   0.3571429), wk =   0.0233236
        k(   62) = (   0.3571429  -0.3571429  -0.5000000), wk =   0.0116618
        k(   63) = (  -0.5000000  -0.3571429   0.3571429), wk =   0.0466472
        k(   64) = (  -0.5000000   0.5000000   0.3571429), wk =   0.0116618

     Initial potential from superposition of free atoms

     starting charge  167.97676, renormalised to  168.00000
     Starting wfcs are  168 randomized atomic wfcs

     Self-consistent Calculation

     iteration #  1     ecut=    70.00 Ry     beta= 0.70
     Davidson diagonalization with overlap
     ethr =  1.00E-02,  avg # of iterations =  2.0

     Threshold (ethr) on eigenvalues was too large:
     Diagonalizing with lowered threshold

     Davidson diagonalization with overlap
     ethr =  8.56E-04,  avg # of iterations =  3.3

     total energy              =    -326.27144841 Ry
     estimated scf accuracy    <       1.78976264 Ry

[...]

     iteration #  7     ecut=    70.00 Ry     beta= 0.70
     Davidson diagonalization with overlap
     c_bands:  1 eigenvalues not converged
     ethr =  5.98E-05,  avg # of iterations =  6.0

[...]

     iteration # 28     ecut=    70.00 Ry     beta= 0.70
     Davidson diagonalization with overlap
     ethr =  2.97E-09,  avg # of iterations =  4.8

     total energy              =    -327.03729045 Ry
     estimated scf accuracy    <       0.00000159 Ry

     iteration # 29     ecut=    70.00 Ry     beta= 0.70
     Davidson diagonalization with overlap
     c_bands:  1 eigenvalues not converged
     c_bands:  1 eigenvalues not converged
     c_bands:  1 eigenvalues not converged
     c_bands:  1 eigenvalues not converged
     c_bands:  1 eigenvalues not converged
     c_bands:  1 eigenvalues not converged
     ethr =  9.46E-10,  avg # of iterations =  9.6

     End of self-consistent calculation

          k = 0.0714 0.0714 0.0714 ( 87352 PWs)   bands (ev):

    -8.6113  -7.7485  -7.7391  -7.7345  -7.1221  -7.0649  -6.9075  -6.7485
    -6.6867  -6.6133  -6.2978  -6.2839  -6.0262  -5.8348  -5.7926  -5.5722
    -5.4862  -5.2372  -4.7870  -4.6528  -4.5982  -4.5444  -4.4837  -4.4477
    -4.2883  -3.7844  -3.6937  -3.5433  -3.4504  -3.2993  -3.2059  -3.0875
    -3.0504  -2.9368  -2.7978  -2.2826  -2.1516  -2.0441  -1.5095  -1.4111
    -1.1851  -0.8996  -0.8301  -0.7755  -0.7514  -0.7347  -0.5964  -0.5648
    -0.4997  -0.4148  -0.2026  -0.0485   0.0095   0.0918   0.0924   0.2739
     0.3037   0.4162   0.5805   0.7142   0.7373   0.8350   0.8992   0.9403
     0.9555   0.9658   1.0824   1.1332   1.2445   1.2618   1.3911   1.4994
     1.5266   1.5739   1.6034   1.7398   1.7889   1.8371   1.9324   2.0589
     2.1351   2.1594   2.2503   2.2665

[...]

          k =-0.5000-0.5000-0.5000 ( 87128 PWs)   bands (ev):

[...]

          k = 0.3571-0.3571-0.5000 ( 87226 PWs)   bands (ev):

[...]

          k =-0.5000 0.5000 0.3571 ( 87196 PWs)   bands (ev):

    -8.5486  -7.8098  -7.7876  -7.7701  -7.2373  -7.2188  -7.0011  -6.5272
    -6.4894  -6.4769  -6.2627  -6.1991  -5.9565  -5.7298  -5.6872  -5.5117
    -5.4788  -5.2717  -4.9807  -4.9661  -4.8244  -4.7114  -4.6154  -4.5150
    -4.3678  -3.7127  -3.5912  -3.5673  -3.2508  -3.2231  -3.0214  -2.9058
    -2.8339  -2.7557  -2.6619  -2.5169  -2.2845  -2.2378  -1.6873  -1.5900
    -1.4975  -0.9852  -0.8599  -0.7651  -0.7106  -0.6281  -0.5306  -0.4869
    -0.3439  -0.2331  -0.1569  -0.0700  -0.0257   0.1687   0.2276   0.2419
     0.3579   0.5455   0.5819   0.6537   0.6922   0.7890   0.8290   0.9266
     0.9683   1.0959   1.1475   1.1793   1.1943   1.3420   1.3829   1.4065
     1.4656   1.6825   1.6877   1.7804   1.8407   1.8523   1.9925   2.0692
     2.1035   2.1357   2.2074   2.2356

     highest occupied level (ev):     2.3884

!    total energy              =    -327.03729052 Ry
     estimated scf accuracy    <       0.00000023 Ry

     The total energy is the sum of the following terms:
     one-electron contribution =     -81.48607216 Ry
     hartree contribution      =      90.16493594 Ry
     xc contribution           =     -94.38513636 Ry
     ewald contribution        =    -241.33101794 Ry

     convergence has been achieved in  29 iterations

     Forces acting on atoms (cartesian axes, Ry/au):

     atom    1 type  1   force =    -0.00171138   -0.00171138   -0.00744186
     atom    2 type  1   force =    -0.01277709    0.01277709    0.00046042
     atom    3 type  1   force =     0.01277709   -0.01277709    0.00046042
     atom    4 type  1   force =     0.00171138    0.00171138   -0.00744186
     atom    5 type  1   force =    -0.00180396   -0.00180396   -0.00453377
     atom    6 type  1   force =    -0.00665937    0.00665937    0.00101045
     atom    7 type  1   force =     0.00665937   -0.00665937    0.00101045
     atom    8 type  1   force =     0.00180396    0.00180396   -0.00453377
     atom    9 type  1   force =     0.00000000    0.00000000   -0.02933502
     atom   10 type  1   force =     0.00000000    0.00000000    0.00342141
     atom   11 type  1   force =     0.00138595   -0.00051037   -0.00099658
     atom   12 type  1   force =    -0.00138595    0.00051037   -0.00099658
     atom   13 type  1   force =     0.00819026    0.01119184    0.01905556
     atom   14 type  1   force =    -0.00819026   -0.01119184    0.01905556
     atom   15 type  1   force =    -0.00051037    0.00138595   -0.00099658
     atom   16 type  1   force =     0.00051037   -0.00138595   -0.00099658
     atom   17 type  1   force =     0.01119184    0.00819026    0.01905556
     atom   18 type  1   force =    -0.01119184   -0.00819026    0.01905556
     atom   19 type  1   force =    -0.00421535   -0.00421535   -0.00775217
     atom   20 type  1   force =     0.01146312   -0.02245783    0.00327679
     atom   21 type  1   force =    -0.02245783    0.01146312    0.00327679
     atom   22 type  1   force =    -0.00533824   -0.00533824    0.01058434
     atom   23 type  1   force =    -0.00235733   -0.00235733   -0.00221530
     atom   24 type  1   force =     0.02344267    0.00732497   -0.00520882
     atom   25 type  1   force =     0.00732497    0.02344267   -0.00520882
     atom   26 type  1   force =     0.01062802    0.01062802   -0.00530831
     atom   27 type  1   force =     0.00533824    0.00533824    0.01058434
     atom   28 type  1   force =     0.02245783   -0.01146312    0.00327679
     atom   29 type  1   force =    -0.01146312    0.02245783    0.00327679
     atom   30 type  1   force =     0.00421535    0.00421535   -0.00775217
     atom   31 type  1   force =    -0.01062802   -0.01062802   -0.00530831
     atom   32 type  1   force =    -0.00732497   -0.02344267   -0.00520882
     atom   33 type  1   force =    -0.02344267   -0.00732497   -0.00520882
     atom   34 type  1   force =     0.00235733    0.00235733   -0.00221530
     atom   35 type  1   force =    -0.00609806   -0.02644251    0.00172812
     atom   36 type  1   force =     0.01228349   -0.01228349   -0.01050596
     atom   37 type  1   force =    -0.00275736    0.00275736    0.00294884
     atom   38 type  1   force =     0.02644251    0.00609806    0.00172812
     atom   39 type  1   force =    -0.02644251   -0.00609806    0.00172812
     atom   40 type  1   force =     0.00275736   -0.00275736    0.00294884
     atom   41 type  1   force =    -0.01228349    0.01228349   -0.01050596
     atom   42 type  1   force =     0.00609806    0.02644251    0.00172812

     Total force =     0.118839     Total SCF correction =     0.000707

     Computing stress (Cartesian axis) and pressure

          total   stress  (Ry/bohr**3)                   (kbar)     P=      -33.99
  -0.00024552   0.00000337   0.00000000          -36.12        0.50        0.00
   0.00000337  -0.00024552   0.00000000            0.50      -36.12        0.00
   0.00000000   0.00000000  -0.00020211            0.00        0.00      -29.73

     Writing output data file ./Si64.save/

     General routines

     Parallel routines

   This run was terminated on:  20: 6: 1  24Feb2022

   JOB DONE.