     Program PWSCF v.7.0 starts on 21Feb2022 at 14:17:22

     Reading input from Si64.scf.kpoint.4.in

     Current dimensions of program PWSCF are:
     Max number of different atomic species (ntypx) = 10
     Max number of k-points (npk) =  40000
     Max angular momentum in pseudopotentials (lmaxx) =  4
     Found identity + ( -0.5000  0.0000  0.0000) symmetry
     This is a supercell, fractional translations are disabled
     Message from routine setup:
     using ibrav=0 with symmetry is DISCOURAGED, use correct ibrav instead

     Subspace diagonalization in iterative solution of the eigenvalue problem:
     a serial algorithm will be used

     Using Slab Decomposition

     bravais-lattice index     =            0
     lattice parameter (alat)  =      20.6660  a.u.
     unit-cell volume          =    8826.0984 (a.u.)^3
     number of atoms/cell      =           64
     number of atomic types    =            1
     number of electrons       =       256.00
     number of Kohn-Sham states=          128
     kinetic-energy cutoff     =      30.0000  Ry
     charge density cutoff     =     120.0000  Ry
     scf convergence threshold =      1.0E-06
     mixing beta               =       0.7000
     number of iterations used =            8  plain     mixing
     Exchange-correlation=  SLA  PW   PBE  PBE
                           (   1   4   3   4   0   0   0)

     celldm(1)=  20.665992  celldm(2)=   0.000000  celldm(3)=   0.000000
     celldm(4)=   0.000000  celldm(5)=   0.000000  celldm(6)=   0.000000

     crystal axes: (cart. coord. in units of alat)
               a(1) = (   1.000000   0.000000   0.000000 )
               a(2) = (   0.000000   1.000000   0.000000 )
               a(3) = (   0.000000   0.000000   1.000000 )

     reciprocal axes: (cart. coord. in units 2 pi/alat)
               b(1) = (  1.000000  0.000000  0.000000 )
               b(2) = (  0.000000  1.000000  0.000000 )
               b(3) = (  0.000000  0.000000  1.000000 )

     PseudoPot. # 1 for Si read from file:
     ../Si.pbe-rrkj.UPF
     MD5 check sum: cf7ab5690cd9a85b22c4813f7e365554
     Pseudo is Norm-conserving, Zval =  4.0
     Generated by new atomic code, or converted to UPF format
     Using radial grid of  883 points,  3 beta functions with:
                l(1) =   0
                l(2) =   0
                l(3) =   1

     atomic species   valence    mass     pseudopotential
        Si             4.00    28.08600     Si( 1.00)

      6 Sym. Ops. (no inversion) found

   Cartesian axes

     site n.     atom                  positions (alat units)
         1           Si  tau(   1) = (   0.3669965   0.3669965   0.0000000  )
         2           Si  tau(   2) = (   0.8669965   0.3669965   0.0000000  )
         3           Si  tau(   3) = (   0.3669965   0.8669965   0.0000000  )
         4           Si  tau(   4) = (   0.8669965   0.8669965   0.0000000  )
         5           Si  tau(   5) = (   0.3669965   0.3669965   0.5000000  )
         6           Si  tau(   6) = (   0.8669965   0.3669965   0.5000000  )
         7           Si  tau(   7) = (   0.3669965   0.8669965   0.5000000  )
         8           Si  tau(   8) = (   0.8669965   0.8669965   0.5000000  )
         9           Si  tau(   9) = (   0.0000000   0.0000000   0.0000000  )
        10           Si  tau(  10) = (   0.5000000   0.0000000   0.0000000  )
        11           Si  tau(  11) = (   0.0000000   0.5000000   0.0000000  )
        12           Si  tau(  12) = (   0.5000000   0.5000000   0.0000000  )
        13           Si  tau(  13) = (   0.0000000   0.0000000   0.5000000  )
        14           Si  tau(  14) = (   0.5000000   0.0000000   0.5000000  )
        15           Si  tau(  15) = (   0.0000000   0.5000000   0.5000000  )
        16           Si  tau(  16) = (   0.5000000   0.5000000   0.5000000  )
        17           Si  tau(  17) = (   0.3669965   0.0000000   0.3669965  )
        18           Si  tau(  18) = (   0.8669965   0.0000000   0.3669965  )
        19           Si  tau(  19) = (   0.3669965   0.5000000   0.3669965  )
        20           Si  tau(  20) = (   0.8669965   0.5000000   0.3669965  )
        21           Si  tau(  21) = (   0.3669965   0.0000000   0.8669965  )
        22           Si  tau(  22) = (   0.8669965   0.0000000   0.8669965  )
        23           Si  tau(  23) = (   0.3669965   0.5000000   0.8669965  )
        24           Si  tau(  24) = (   0.8669965   0.5000000   0.8669965  )
        25           Si  tau(  25) = (   0.0000000   0.3669965   0.3669965  )
        26           Si  tau(  26) = (   0.5000000   0.3669965   0.3669965  )
        27           Si  tau(  27) = (   0.0000000   0.8669965   0.3669965  )
        28           Si  tau(  28) = (   0.5000000   0.8669965   0.3669965  )
        29           Si  tau(  29) = (   0.0000000   0.3669965   0.8669965  )
        30           Si  tau(  30) = (   0.5000000   0.3669965   0.8669965  )
        31           Si  tau(  31) = (   0.0000000   0.8669965   0.8669965  )
        32           Si  tau(  32) = (   0.5000000   0.8669965   0.8669965  )
        33           Si  tau(  33) = (   0.0504947   0.0504947   0.6834982  )
        34           Si  tau(  34) = (   0.5504947   0.0504947   0.6834982  )
        35           Si  tau(  35) = (   0.0504947   0.5504947   0.6834982  )
        36           Si  tau(  36) = (   0.5504947   0.5504947   0.6834982  )
        37           Si  tau(  37) = (   0.0504947   0.0504947   0.1834982  )
        38           Si  tau(  38) = (   0.5504947   0.0504947   0.1834982  )
        39           Si  tau(  39) = (   0.0504947   0.5504947   0.1834982  )
        40           Si  tau(  40) = (   0.5504947   0.5504947   0.1834982  )
        41           Si  tau(  41) = (   0.6834982   0.6834982   0.6834982  )
        42           Si  tau(  42) = (   0.1834982   0.6834982   0.6834982  )
        43           Si  tau(  43) = (   0.6834982   0.1834982   0.6834982  )
        44           Si  tau(  44) = (   0.1834982   0.1834982   0.6834982  )
        45           Si  tau(  45) = (   0.6834982   0.6834982   0.1834982  )
        46           Si  tau(  46) = (   0.1834982   0.6834982   0.1834982  )
        47           Si  tau(  47) = (   0.6834982   0.1834982   0.1834982  )
        48           Si  tau(  48) = (   0.1834982   0.1834982   0.1834982  )
        49           Si  tau(  49) = (   0.0504947   0.6834982   0.0504947  )
        50           Si  tau(  50) = (   0.5504947   0.6834982   0.0504947  )
        51           Si  tau(  51) = (   0.0504947   0.1834982   0.0504947  )
        52           Si  tau(  52) = (   0.5504947   0.1834982   0.0504947  )
        53           Si  tau(  53) = (   0.0504947   0.6834982   0.5504947  )
        54           Si  tau(  54) = (   0.5504947   0.6834982   0.5504947  )
        55           Si  tau(  55) = (   0.0504947   0.1834982   0.5504947  )
        56           Si  tau(  56) = (   0.5504947   0.1834982   0.5504947  )
        57           Si  tau(  57) = (   0.6834982   0.0504947   0.0504947  )
        58           Si  tau(  58) = (   0.1834982   0.0504947   0.0504947  )
        59           Si  tau(  59) = (   0.6834982   0.5504947   0.0504947  )
        60           Si  tau(  60) = (   0.1834982   0.5504947   0.0504947  )
        61           Si  tau(  61) = (   0.6834982   0.0504947   0.5504947  )
        62           Si  tau(  62) = (   0.1834982   0.0504947   0.5504947  )
        63           Si  tau(  63) = (   0.6834982   0.5504947   0.5504947  )
        64           Si  tau(  64) = (   0.1834982   0.5504947   0.5504947  )

     number of k points=    10
                       cart. coord. in units 2pi/alat
        k(    1) = (   0.1250000   0.1250000   0.1250000), wk =   0.0625000
        k(    2) = (   0.1250000   0.1250000   0.3750000), wk =   0.1875000
        k(    3) = (   0.1250000   0.3750000   0.3750000), wk =   0.1875000
        k(    4) = (   0.3750000   0.3750000   0.3750000), wk =   0.0625000
        k(    5) = (   0.1250000  -0.1250000   0.1250000), wk =   0.1875000
        k(    6) = (   0.1250000  -0.1250000   0.3750000), wk =   0.3750000
        k(    7) = (  -0.3750000   0.1250000   0.1250000), wk =   0.1875000
        k(    8) = (   0.3750000  -0.1250000   0.3750000), wk =   0.1875000
        k(    9) = (  -0.3750000   0.1250000   0.3750000), wk =   0.3750000
        k(   10) = (   0.3750000  -0.3750000   0.3750000), wk =   0.1875000

     Initial potential from superposition of free atoms

     starting charge     255.9646, renormalised to     256.0000
     Starting wfcs are  256 randomized atomic wfcs

     Self-consistent Calculation

     iteration #  1     ecut=    30.00 Ry     beta= 0.70
     Davidson diagonalization with overlap
     ethr =  1.00E-02,  avg # of iterations =  3.0

     total energy              =    -491.27865232 Ry
     estimated scf accuracy    <       6.73490431 Ry

[...]

     total energy              =    -493.77849025 Ry
     estimated scf accuracy    <       0.00000502 Ry

     iteration # 16     ecut=    30.00 Ry     beta= 0.70
     Davidson diagonalization with overlap
     ethr =  1.96E-09,  avg # of iterations =  7.8

     End of self-consistent calculation

          k = 0.1250 0.1250 0.1250 ( 24483 PWs)   bands (ev):

    -9.5376  -9.3975  -9.3975  -9.3975  -9.2796  -9.2795  -9.2795  -9.1813
    -8.2700  -8.2403  -8.2403  -8.2401  -8.1691  -8.1691  -8.1690  -8.0238
    -3.7357  -3.5726  -3.5726  -3.5726  -3.4199  -3.4199  -3.4199  -3.3573
    -2.9982  -2.9981  -2.9981  -2.7381  -2.7381  -2.4627  -2.4627  -2.4627
    -1.8749  -1.8749  -1.7362  -1.7361  -1.7361  -1.6851  -1.6850  -1.6850
    -1.1743  -1.1743  -1.1743  -0.9888  -0.9888  -0.9887  -0.8177  -0.8177
    -0.8177  -0.8171  -0.8171  -0.5802  -0.5802  -0.0264   0.0479   0.0479
     0.0480   0.1263   0.1263   0.1264   0.1898   0.2478   0.2479   0.2479
     0.8579   1.7137   1.7137   1.7137   1.7910   2.0802   2.0802   2.0802
     2.2890   2.2890   2.2891   2.4359   2.4359   2.4360   2.5149   2.5149
     3.0113   3.0113   3.0113   3.0143   3.0143   3.0143   3.1016   3.1017
     3.1017   3.1197   3.1198   3.1198   3.2397   3.2889   3.2889   3.2889
     3.6637   3.6637   3.6891   3.8245   3.8246   3.8246   3.8270   3.8271
     3.8271   4.0120   4.0120   4.0120   4.1492   4.1492   4.5143   4.5143
     4.8302   4.8302   5.2514   5.2514   5.2514   5.3187   5.3187   5.3187
     5.3572   5.3572   5.4026   5.4026   5.4026   5.7060   5.7060   5.7060

[...]

          k =-0.3750 0.1250 0.1250 ( 24484 PWs)   bands (ev):

[...]

          k =-0.3750 0.1250 0.3750 ( 24478 PWs)   bands (ev):

[...]

          k = 0.3750-0.3750 0.3750 ( 24534 PWs)   bands (ev):

    -9.4297  -9.3761  -9.3761  -9.3728  -9.3268  -9.3268  -9.3231  -9.2805
    -8.2224  -8.2067  -8.1976  -8.1975  -8.1740  -8.1654  -8.1653  -8.1203
    -3.6222  -3.5838  -3.5838  -3.5022  -3.5022  -3.4824  -3.4721  -3.3968
    -2.7161  -2.6144  -2.5985  -2.5984  -2.5847  -2.5540  -2.5539  -2.5130
    -2.3137  -2.2867  -2.2372  -2.2372  -2.2170  -2.0168  -2.0168  -1.9594
    -1.0589  -0.9615  -0.9615  -0.7432  -0.7432  -0.6159  -0.5158  -0.4924
    -0.4734  -0.3587  -0.3487  -0.2442  -0.2442  -0.1923  -0.1923  -0.0881
    -0.0691   0.0221   0.0849   0.0850   0.0970   0.1299   0.1300   0.2157
     1.5881   1.6805   1.7123   1.9346   1.9347   2.0092   2.0092   2.0563
     2.3449   2.4911   2.4971   2.5127   2.5127   2.5164   2.5825   2.5825
     2.5850   2.6070   2.6070   2.6926   2.6927   2.7550   2.8091   2.8091
     2.8332   2.9093   2.9094   2.9127   2.9174   3.0581   3.0585   3.2820
     3.6935   3.7032   3.7032   3.8019   3.8019   3.8662   3.9493   4.0128
     4.0145   4.0474   4.0584   4.0584   4.0783   4.0918   4.0918   4.1016
     5.0911   5.0912   5.1583   5.2119   5.3003   5.3021   5.3276   5.3276
     5.4532   5.5009   5.5382   5.5382   5.6038   5.6038   5.6098   5.6309

     highest occupied level (ev):     5.7201

!    total energy              =    -493.77849084 Ry
     estimated scf accuracy    <       0.00000048 Ry

     The total energy is the sum of the following terms:
     one-electron contribution =     -16.54296288 Ry
     hartree contribution      =     113.39055918 Ry
     xc contribution           =    -159.72830387 Ry
     ewald contribution        =    -430.89778326 Ry

     convergence has been achieved in  16 iterations

     Forces acting on atoms (cartesian axes, Ry/au):

     atom    1 type  1   force =    -0.23191195   -0.23191195    0.26965991
     atom    2 type  1   force =    -0.23190135   -0.23189484    0.26964395
     atom    3 type  1   force =    -0.23189484   -0.23190135    0.26964395
     atom    4 type  1   force =    -0.23193157   -0.23193157    0.26968205
     atom    5 type  1   force =    -0.23193859   -0.23193859    0.26969482
     atom    6 type  1   force =    -0.23191223   -0.23189724    0.26966256
     atom    7 type  1   force =    -0.23189724   -0.23191223    0.26966256
     atom    8 type  1   force =    -0.23190929   -0.23190929    0.26965479
     atom    9 type  1   force =     0.08917975    0.08917975    0.08917975
     atom   10 type  1   force =     0.08912542    0.08912827    0.08912827
     atom   11 type  1   force =     0.08912827    0.08912542    0.08912827
     atom   12 type  1   force =     0.08914321    0.08914321    0.08913044
     atom   13 type  1   force =     0.08912827    0.08912827    0.08912542
     atom   14 type  1   force =     0.08914321    0.08913044    0.08914321
     atom   15 type  1   force =     0.08913044    0.08914321    0.08914321
     atom   16 type  1   force =     0.08921233    0.08921233    0.08921233
     atom   17 type  1   force =    -0.23191195    0.26965991   -0.23191195
     atom   18 type  1   force =    -0.23190135    0.26964395   -0.23189484
     atom   19 type  1   force =    -0.23193859    0.26969482   -0.23193859
     atom   20 type  1   force =    -0.23191223    0.26966256   -0.23189724
     atom   21 type  1   force =    -0.23189484    0.26964395   -0.23190135
     atom   22 type  1   force =    -0.23193157    0.26968205   -0.23193157
     atom   23 type  1   force =    -0.23189724    0.26966256   -0.23191223
     atom   24 type  1   force =    -0.23190929    0.26965479   -0.23190929
     atom   25 type  1   force =     0.26965991   -0.23191195   -0.23191195
     atom   26 type  1   force =     0.26969482   -0.23193859   -0.23193859
     atom   27 type  1   force =     0.26964395   -0.23190135   -0.23189484
     atom   28 type  1   force =     0.26966256   -0.23191223   -0.23189724
     atom   29 type  1   force =     0.26964395   -0.23189484   -0.23190135
     atom   30 type  1   force =     0.26966256   -0.23189724   -0.23191223
     atom   31 type  1   force =     0.26968205   -0.23193157   -0.23193157
     atom   32 type  1   force =     0.26965479   -0.23190929   -0.23190929
     atom   33 type  1   force =    -0.22134357   -0.22134357    0.33230151
     atom   34 type  1   force =    -0.22132748   -0.22133774    0.33229348
     atom   35 type  1   force =    -0.22133774   -0.22132748    0.33229348
     atom   36 type  1   force =    -0.22131193   -0.22131193    0.33226213
     atom   37 type  1   force =    -0.22132694   -0.22132694    0.33224954
     atom   38 type  1   force =    -0.22132957   -0.22134945    0.33229272
     atom   39 type  1   force =    -0.22134945   -0.22132957    0.33229272
     atom   40 type  1   force =    -0.22132928   -0.22132928    0.33229287
     atom   41 type  1   force =     0.21535856    0.21535856    0.21535856
     atom   42 type  1   force =     0.21540022    0.21539933    0.21539933
     atom   43 type  1   force =     0.21539933    0.21540022    0.21539933
     atom   44 type  1   force =     0.21539957    0.21539957    0.21541004
     atom   45 type  1   force =     0.21539933    0.21539933    0.21540022
     atom   46 type  1   force =     0.21539957    0.21541004    0.21539957
     atom   47 type  1   force =     0.21541004    0.21539957    0.21539957
     atom   48 type  1   force =     0.21536544    0.21536544    0.21536544
     atom   49 type  1   force =    -0.22134357    0.33230151   -0.22134357
     atom   50 type  1   force =    -0.22132748    0.33229348   -0.22133774
     atom   51 type  1   force =    -0.22132694    0.33224954   -0.22132694
     atom   52 type  1   force =    -0.22132957    0.33229272   -0.22134945
     atom   53 type  1   force =    -0.22133774    0.33229348   -0.22132748
     atom   54 type  1   force =    -0.22131193    0.33226213   -0.22131193
     atom   55 type  1   force =    -0.22134945    0.33229272   -0.22132957
     atom   56 type  1   force =    -0.22132928    0.33229287   -0.22132928
     atom   57 type  1   force =     0.33230151   -0.22134357   -0.22134357
     atom   58 type  1   force =     0.33224954   -0.22132694   -0.22132694
     atom   59 type  1   force =     0.33229348   -0.22132748   -0.22133774
     atom   60 type  1   force =     0.33229272   -0.22132957   -0.22134945
     atom   61 type  1   force =     0.33229348   -0.22133774   -0.22132748
     atom   62 type  1   force =     0.33229272   -0.22134945   -0.22132957
     atom   63 type  1   force =     0.33226213   -0.22131193   -0.22131193
     atom   64 type  1   force =     0.33229287   -0.22132928   -0.22132928

     Total force =     3.260728     Total SCF correction =     0.001062

     Computing stress (Cartesian axis) and pressure

          total   stress  (Ry/bohr**3)                   (kbar)     P=      356.93
   0.00242637   0.00008295   0.00008295          356.93       12.20       12.20
   0.00008295   0.00242637   0.00008295           12.20      356.93       12.20
   0.00008295   0.00008295   0.00242637           12.20       12.20      356.93

     Writing all to output data dir ./Si2.save/

     General routines

     Parallel routines

   This run was terminated on:  15: 5:47  21Feb2022

   JOB DONE.