     Program PWSCF v.7.0 starts on 21Feb2022 at 15:44:41

     Reading input from Si64.scf.kpoint.5.in

     Current dimensions of program PWSCF are:
     Max number of different atomic species (ntypx) = 10
     Max number of k-points (npk) =  40000
     Max angular momentum in pseudopotentials (lmaxx) =  4
     Found identity + ( -0.5000  0.0000  0.0000) symmetry
     This is a supercell, fractional translations are disabled
     Message from routine setup:
     using ibrav=0 with symmetry is DISCOURAGED, use correct ibrav instead

     Subspace diagonalization in iterative solution of the eigenvalue problem:
     a serial algorithm will be used

     Using Slab Decomposition

     bravais-lattice index     =            0
     lattice parameter (alat)  =      20.6660  a.u.
     unit-cell volume          =    8826.0984 (a.u.)^3
     number of atoms/cell      =           64
     number of atomic types    =            1
     number of electrons       =       256.00
     number of Kohn-Sham states=          128
     kinetic-energy cutoff     =      30.0000  Ry
     charge density cutoff     =     120.0000  Ry
     scf convergence threshold =      1.0E-06
     mixing beta               =       0.7000
     number of iterations used =            8  plain     mixing
     Exchange-correlation=  SLA  PW   PBE  PBE
                           (   1   4   3   4   0   0   0)

     celldm(1)=  20.665992  celldm(2)=   0.000000  celldm(3)=   0.000000
     celldm(4)=   0.000000  celldm(5)=   0.000000  celldm(6)=   0.000000

     crystal axes: (cart. coord. in units of alat)
               a(1) = (   1.000000   0.000000   0.000000 )
               a(2) = (   0.000000   1.000000   0.000000 )
               a(3) = (   0.000000   0.000000   1.000000 )

     reciprocal axes: (cart. coord. in units 2 pi/alat)
               b(1) = (  1.000000  0.000000  0.000000 )
               b(2) = (  0.000000  1.000000  0.000000 )
               b(3) = (  0.000000  0.000000  1.000000 )

     PseudoPot. # 1 for Si read from file:
     ../Si.pbe-rrkj.UPF
     MD5 check sum: cf7ab5690cd9a85b22c4813f7e365554
     Pseudo is Norm-conserving, Zval =  4.0
     Generated by new atomic code, or converted to UPF format
     Using radial grid of  883 points,  3 beta functions with:
                l(1) =   0
                l(2) =   0
                l(3) =   1

     atomic species   valence    mass     pseudopotential
        Si             4.00    28.08600     Si( 1.00)

      6 Sym. Ops. (no inversion) found

   Cartesian axes

     site n.     atom                  positions (alat units)
         1           Si  tau(   1) = (   0.3669965   0.3669965   0.0000000  )
         2           Si  tau(   2) = (   0.8669965   0.3669965   0.0000000  )
         3           Si  tau(   3) = (   0.3669965   0.8669965   0.0000000  )
         4           Si  tau(   4) = (   0.8669965   0.8669965   0.0000000  )
         5           Si  tau(   5) = (   0.3669965   0.3669965   0.5000000  )
         6           Si  tau(   6) = (   0.8669965   0.3669965   0.5000000  )
         7           Si  tau(   7) = (   0.3669965   0.8669965   0.5000000  )
         8           Si  tau(   8) = (   0.8669965   0.8669965   0.5000000  )
         9           Si  tau(   9) = (   0.0000000   0.0000000   0.0000000  )
        10           Si  tau(  10) = (   0.5000000   0.0000000   0.0000000  )
        11           Si  tau(  11) = (   0.0000000   0.5000000   0.0000000  )
        12           Si  tau(  12) = (   0.5000000   0.5000000   0.0000000  )
        13           Si  tau(  13) = (   0.0000000   0.0000000   0.5000000  )
        14           Si  tau(  14) = (   0.5000000   0.0000000   0.5000000  )
        15           Si  tau(  15) = (   0.0000000   0.5000000   0.5000000  )
        16           Si  tau(  16) = (   0.5000000   0.5000000   0.5000000  )
        17           Si  tau(  17) = (   0.3669965   0.0000000   0.3669965  )
        18           Si  tau(  18) = (   0.8669965   0.0000000   0.3669965  )
        19           Si  tau(  19) = (   0.3669965   0.5000000   0.3669965  )
        20           Si  tau(  20) = (   0.8669965   0.5000000   0.3669965  )
        21           Si  tau(  21) = (   0.3669965   0.0000000   0.8669965  )
        22           Si  tau(  22) = (   0.8669965   0.0000000   0.8669965  )
        23           Si  tau(  23) = (   0.3669965   0.5000000   0.8669965  )
        24           Si  tau(  24) = (   0.8669965   0.5000000   0.8669965  )
        25           Si  tau(  25) = (   0.0000000   0.3669965   0.3669965  )
        26           Si  tau(  26) = (   0.5000000   0.3669965   0.3669965  )
        27           Si  tau(  27) = (   0.0000000   0.8669965   0.3669965  )
        28           Si  tau(  28) = (   0.5000000   0.8669965   0.3669965  )
        29           Si  tau(  29) = (   0.0000000   0.3669965   0.8669965  )
        30           Si  tau(  30) = (   0.5000000   0.3669965   0.8669965  )
        31           Si  tau(  31) = (   0.0000000   0.8669965   0.8669965  )
        32           Si  tau(  32) = (   0.5000000   0.8669965   0.8669965  )
        33           Si  tau(  33) = (   0.0504947   0.0504947   0.6834982  )
        34           Si  tau(  34) = (   0.5504947   0.0504947   0.6834982  )
        35           Si  tau(  35) = (   0.0504947   0.5504947   0.6834982  )
        36           Si  tau(  36) = (   0.5504947   0.5504947   0.6834982  )
        37           Si  tau(  37) = (   0.0504947   0.0504947   0.1834982  )
        38           Si  tau(  38) = (   0.5504947   0.0504947   0.1834982  )
        39           Si  tau(  39) = (   0.0504947   0.5504947   0.1834982  )
        40           Si  tau(  40) = (   0.5504947   0.5504947   0.1834982  )
        41           Si  tau(  41) = (   0.6834982   0.6834982   0.6834982  )
        42           Si  tau(  42) = (   0.1834982   0.6834982   0.6834982  )
        43           Si  tau(  43) = (   0.6834982   0.1834982   0.6834982  )
        44           Si  tau(  44) = (   0.1834982   0.1834982   0.6834982  )
        45           Si  tau(  45) = (   0.6834982   0.6834982   0.1834982  )
        46           Si  tau(  46) = (   0.1834982   0.6834982   0.1834982  )
        47           Si  tau(  47) = (   0.6834982   0.1834982   0.1834982  )
        48           Si  tau(  48) = (   0.1834982   0.1834982   0.1834982  )
        49           Si  tau(  49) = (   0.0504947   0.6834982   0.0504947  )
        50           Si  tau(  50) = (   0.5504947   0.6834982   0.0504947  )
        51           Si  tau(  51) = (   0.0504947   0.1834982   0.0504947  )
        52           Si  tau(  52) = (   0.5504947   0.1834982   0.0504947  )
        53           Si  tau(  53) = (   0.0504947   0.6834982   0.5504947  )
        54           Si  tau(  54) = (   0.5504947   0.6834982   0.5504947  )
        55           Si  tau(  55) = (   0.0504947   0.1834982   0.5504947  )
        56           Si  tau(  56) = (   0.5504947   0.1834982   0.5504947  )
        57           Si  tau(  57) = (   0.6834982   0.0504947   0.0504947  )
        58           Si  tau(  58) = (   0.1834982   0.0504947   0.0504947  )
        59           Si  tau(  59) = (   0.6834982   0.5504947   0.0504947  )
        60           Si  tau(  60) = (   0.1834982   0.5504947   0.0504947  )
        61           Si  tau(  61) = (   0.6834982   0.0504947   0.5504947  )
        62           Si  tau(  62) = (   0.1834982   0.0504947   0.5504947  )
        63           Si  tau(  63) = (   0.6834982   0.5504947   0.5504947  )
        64           Si  tau(  64) = (   0.1834982   0.5504947   0.5504947  )

     number of k points=    19
                       cart. coord. in units 2pi/alat
        k(    1) = (   0.1000000   0.1000000   0.1000000), wk =   0.0320000
        k(    2) = (   0.1000000   0.1000000   0.3000000), wk =   0.0960000
        k(    3) = (   0.1000000   0.1000000  -0.5000000), wk =   0.0960000
        k(    4) = (   0.1000000   0.3000000   0.3000000), wk =   0.0960000
        k(    5) = (   0.1000000   0.3000000  -0.5000000), wk =   0.1920000
        k(    6) = (   0.1000000  -0.5000000  -0.5000000), wk =   0.0960000
        k(    7) = (   0.3000000   0.3000000   0.3000000), wk =   0.0320000
        k(    8) = (   0.3000000   0.3000000  -0.5000000), wk =   0.0960000
        k(    9) = (   0.3000000  -0.5000000  -0.5000000), wk =   0.0960000
        k(   10) = (  -0.5000000  -0.5000000  -0.5000000), wk =   0.0160000
        k(   11) = (   0.1000000  -0.1000000   0.1000000), wk =   0.0960000
        k(   12) = (   0.1000000  -0.1000000   0.3000000), wk =   0.1920000
        k(   13) = (  -0.3000000   0.1000000   0.1000000), wk =   0.0960000
        k(   14) = (   0.1000000  -0.1000000  -0.5000000), wk =   0.0960000
        k(   15) = (   0.3000000  -0.1000000   0.3000000), wk =   0.0960000
        k(   16) = (  -0.3000000   0.1000000   0.3000000), wk =   0.1920000
        k(   17) = (   0.3000000  -0.1000000  -0.5000000), wk =   0.1920000
        k(   18) = (   0.3000000  -0.3000000   0.3000000), wk =   0.0960000
        k(   19) = (   0.3000000  -0.3000000  -0.5000000), wk =   0.0960000

     Initial potential from superposition of free atoms

     starting charge     255.9646, renormalised to     256.0000
     Starting wfcs are  256 randomized atomic wfcs

     Self-consistent Calculation

     iteration #  1     ecut=    30.00 Ry     beta= 0.70
     Davidson diagonalization with overlap
     ethr =  1.00E-02,  avg # of iterations =  3.0

     total energy              =    -491.27145191 Ry
     estimated scf accuracy    <       6.74149065 Ry

[...]

     iteration #  4     ecut=    30.00 Ry     beta= 0.70
     Davidson diagonalization with overlap
     c_bands:  1 eigenvalues not converged
     ethr =  3.21E-05,  avg # of iterations = 14.4

[...]

     iteration # 18     ecut=    30.00 Ry     beta= 0.70
     Davidson diagonalization with overlap
     c_bands:  2 eigenvalues not converged
     ethr =  2.69E-09,  avg # of iterations = 11.9

[...]

     total energy              =    -493.77803147 Ry
     estimated scf accuracy    <       0.00000281 Ry

     iteration # 23     ecut=    30.00 Ry     beta= 0.70
     Davidson diagonalization with overlap
     ethr =  1.10E-09,  avg # of iterations =  8.2

     End of self-consistent calculation

          k = 0.1000 0.1000 0.1000 ( 24453 PWs)   bands (ev):

    -9.5427  -9.3978  -9.3974  -9.3974  -9.2765  -9.2761  -9.2761  -9.1759
    -8.2716  -8.2427  -8.2426  -8.2426  -8.1704  -8.1702  -8.1702  -8.0176
    -3.7436  -3.5770  -3.5766  -3.5766  -3.4055  -3.4051  -3.4051  -3.3632
    -3.0115  -3.0115  -3.0114  -2.7433  -2.7433  -2.4746  -2.4746  -2.4746
    -1.8374  -1.8374  -1.6846  -1.6846  -1.6846  -1.6461  -1.6461  -1.6460
    -1.2197  -1.2197  -1.2196  -0.9992  -0.9992  -0.9991  -0.8597  -0.8597
    -0.8452  -0.8452  -0.8451  -0.5943  -0.5943   0.0383   0.0552   0.0552
     0.0552   0.1034   0.1035   0.1035   0.1833   0.2694   0.2694   0.2696
     0.7872   1.6830   1.6830   1.6830   1.8131   2.0718   2.0718   2.0720
     2.3414   2.3414   2.3414   2.4380   2.4380   2.4380   2.5152   2.5152
     3.0436   3.0436   3.0436   3.0495   3.0496   3.0496   3.0625   3.0625
     3.0625   3.0988   3.0988   3.0988   3.2632   3.2873   3.2873   3.2873
     3.6696   3.7452   3.7452   3.7887   3.7889   3.7889   3.8461   3.8461
     3.8463   4.0285   4.0286   4.0286   4.1964   4.1964   4.5019   4.5019
     4.8173   4.8173   5.2449   5.2449   5.2449   5.3062   5.3063   5.3063
     5.3508   5.3508   5.4140   5.4141   5.4141   5.7045   5.7045   5.7045

[...]

          k =-0.5000-0.5000-0.5000 ( 24464 PWs)   bands (ev):

[...]

          k =-0.3000 0.1000 0.3000 ( 24450 PWs)   bands (ev):

[...]

          k = 0.3000-0.3000-0.5000 ( 24514 PWs)   bands (ev):

    -9.4291  -9.4290  -9.3487  -9.3487  -9.3454  -9.3453  -9.2764  -9.2764
    -8.2264  -8.2264  -8.1944  -8.1941  -8.1860  -8.1857  -8.1230  -8.1230
    -3.6271  -3.6270  -3.5436  -3.5436  -3.4591  -3.4591  -3.4384  -3.4384
    -2.6991  -2.6990  -2.6886  -2.6886  -2.6106  -2.6105  -2.4228  -2.4228
    -2.3944  -2.3944  -2.1492  -2.1492  -2.0502  -2.0500  -1.8145  -1.8145
    -1.1709  -1.1708  -0.9331  -0.9330  -0.7292  -0.7291  -0.5908  -0.5908
    -0.3051  -0.3050  -0.2780  -0.2780  -0.2386  -0.2385  -0.1657  -0.1655
     0.0770   0.0772   0.1036   0.1039   0.1057   0.1057   0.1636   0.1636
     1.6009   1.6009   1.7363   1.7365   1.9701   1.9702   2.0050   2.0050
     2.3725   2.3725   2.4410   2.4410   2.5583   2.5583   2.5754   2.5756
     2.6252   2.6252   2.6376   2.6378   2.8337   2.8338   2.8851   2.8851
     2.9003   2.9004   2.9132   2.9133   3.1232   3.1233   3.2247   3.2247
     3.6487   3.6488   3.7455   3.7457   3.8322   3.8322   3.8433   3.8433
     4.0577   4.0578   4.0683   4.0683   4.1185   4.1186   4.1785   4.1785
     5.0880   5.0880   5.1102   5.1104   5.2771   5.2772   5.3502   5.3502
     5.4330   5.4331   5.4471   5.4472   5.5824   5.5824   5.6721   5.6721

     highest occupied level (ev):     5.7916

!    total energy              =    -493.77803139 Ry
     estimated scf accuracy    <       0.00000040 Ry

     The total energy is the sum of the following terms:
     one-electron contribution =     -16.54657191 Ry
     hartree contribution      =     113.39509082 Ry
     xc contribution           =    -159.72876703 Ry
     ewald contribution        =    -430.89778326 Ry

     convergence has been achieved in  23 iterations

     Forces acting on atoms (cartesian axes, Ry/au):

     atom    1 type  1   force =    -0.23187524   -0.23187524    0.26953936
     atom    2 type  1   force =    -0.23189738   -0.23188091    0.26954542
     atom    3 type  1   force =    -0.23188091   -0.23189738    0.26954542
     atom    4 type  1   force =    -0.23191639   -0.23191639    0.26956803
     atom    5 type  1   force =    -0.23188593   -0.23188593    0.26955265
     atom    6 type  1   force =    -0.23187026   -0.23187473    0.26954047
     atom    7 type  1   force =    -0.23187473   -0.23187026    0.26954047
     atom    8 type  1   force =    -0.23189504   -0.23189504    0.26954908
     atom    9 type  1   force =     0.08928264    0.08928264    0.08928264
     atom   10 type  1   force =     0.08926414    0.08926794    0.08926794
     atom   11 type  1   force =     0.08926794    0.08926414    0.08926794
     atom   12 type  1   force =     0.08924813    0.08924813    0.08925075
     atom   13 type  1   force =     0.08926794    0.08926794    0.08926414
     atom   14 type  1   force =     0.08924813    0.08925075    0.08924813
     atom   15 type  1   force =     0.08925075    0.08924813    0.08924813
     atom   16 type  1   force =     0.08925073    0.08925073    0.08925073
     atom   17 type  1   force =    -0.23187524    0.26953936   -0.23187524
     atom   18 type  1   force =    -0.23189738    0.26954542   -0.23188091
     atom   19 type  1   force =    -0.23188593    0.26955265   -0.23188593
     atom   20 type  1   force =    -0.23187026    0.26954047   -0.23187473
     atom   21 type  1   force =    -0.23188091    0.26954542   -0.23189738
     atom   22 type  1   force =    -0.23191639    0.26956803   -0.23191639
     atom   23 type  1   force =    -0.23187473    0.26954047   -0.23187026
     atom   24 type  1   force =    -0.23189504    0.26954908   -0.23189504
     atom   25 type  1   force =     0.26953936   -0.23187524   -0.23187524
     atom   26 type  1   force =     0.26955265   -0.23188593   -0.23188593
     atom   27 type  1   force =     0.26954542   -0.23189738   -0.23188091
     atom   28 type  1   force =     0.26954047   -0.23187026   -0.23187473
     atom   29 type  1   force =     0.26954542   -0.23188091   -0.23189738
     atom   30 type  1   force =     0.26954047   -0.23187473   -0.23187026
     atom   31 type  1   force =     0.26956803   -0.23191639   -0.23191639
     atom   32 type  1   force =     0.26954908   -0.23189504   -0.23189504
     atom   33 type  1   force =    -0.22127439   -0.22127439    0.33218025
     atom   34 type  1   force =    -0.22127330   -0.22126759    0.33218164
     atom   35 type  1   force =    -0.22126759   -0.22127330    0.33218164
     atom   36 type  1   force =    -0.22125414   -0.22125414    0.33215810
     atom   37 type  1   force =    -0.22126393   -0.22126393    0.33217761
     atom   38 type  1   force =    -0.22126839   -0.22127742    0.33218792
     atom   39 type  1   force =    -0.22127742   -0.22126839    0.33218792
     atom   40 type  1   force =    -0.22127110   -0.22127110    0.33218266
     atom   41 type  1   force =     0.21530159    0.21530159    0.21530159
     atom   42 type  1   force =     0.21533307    0.21531978    0.21531978
     atom   43 type  1   force =     0.21531978    0.21533307    0.21531978
     atom   44 type  1   force =     0.21533791    0.21533791    0.21532741
     atom   45 type  1   force =     0.21531978    0.21531978    0.21533307
     atom   46 type  1   force =     0.21533791    0.21532741    0.21533791
     atom   47 type  1   force =     0.21532741    0.21533791    0.21533791
     atom   48 type  1   force =     0.21531582    0.21531582    0.21531582
     atom   49 type  1   force =    -0.22127439    0.33218025   -0.22127439
     atom   50 type  1   force =    -0.22127330    0.33218164   -0.22126759
     atom   51 type  1   force =    -0.22126393    0.33217761   -0.22126393
     atom   52 type  1   force =    -0.22126839    0.33218792   -0.22127742
     atom   53 type  1   force =    -0.22126759    0.33218164   -0.22127330
     atom   54 type  1   force =    -0.22125414    0.33215810   -0.22125414
     atom   55 type  1   force =    -0.22127742    0.33218792   -0.22126839
     atom   56 type  1   force =    -0.22127110    0.33218266   -0.22127110
     atom   57 type  1   force =     0.33218025   -0.22127439   -0.22127439
     atom   58 type  1   force =     0.33217761   -0.22126393   -0.22126393
     atom   59 type  1   force =     0.33218164   -0.22127330   -0.22126759
     atom   60 type  1   force =     0.33218792   -0.22126839   -0.22127742
     atom   61 type  1   force =     0.33218164   -0.22126759   -0.22127330
     atom   62 type  1   force =     0.33218792   -0.22127742   -0.22126839
     atom   63 type  1   force =     0.33215810   -0.22125414   -0.22125414
     atom   64 type  1   force =     0.33218266   -0.22127110   -0.22127110

     Total force =     3.259917     Total SCF correction =     0.001009

     Computing stress (Cartesian axis) and pressure

          total   stress  (Ry/bohr**3)                   (kbar)     P=      356.80
   0.00242547   0.00008310   0.00008310          356.80       12.22       12.22
   0.00008310   0.00242547   0.00008310           12.22      356.80       12.22
   0.00008310   0.00008310   0.00242547           12.22       12.22      356.80

     Writing all to output data dir ./Si2.save/

     General routines

     Parallel routines

   This run was terminated on:  17:44:47  21Feb2022

   JOB DONE.