     Program PWSCF v.7.0 starts on 21Feb2022 at 13:40:59

     Reading input from Si64.scf.kpoint.3.in

     Current dimensions of program PWSCF are:
     Max number of different atomic species (ntypx) = 10
     Max number of k-points (npk) =  40000
     Max angular momentum in pseudopotentials (lmaxx) =  4
     Found identity + ( -0.5000  0.0000  0.0000) symmetry
     This is a supercell, fractional translations are disabled
     Message from routine setup:
     using ibrav=0 with symmetry is DISCOURAGED, use correct ibrav instead

     Subspace diagonalization in iterative solution of the eigenvalue problem:
     a serial algorithm will be used

     Using Slab Decomposition

     bravais-lattice index     =            0
     lattice parameter (alat)  =      20.6660  a.u.
     unit-cell volume          =    8826.0984 (a.u.)^3
     number of atoms/cell      =           64
     number of atomic types    =            1
     number of electrons       =       256.00
     number of Kohn-Sham states=          128
     kinetic-energy cutoff     =      30.0000  Ry
     charge density cutoff     =     120.0000  Ry
     scf convergence threshold =      1.0E-06
     mixing beta               =       0.7000
     number of iterations used =            8  plain     mixing
     Exchange-correlation=  SLA  PW   PBE  PBE
                           (   1   4   3   4   0   0   0)

     celldm(1)=  20.665992  celldm(2)=   0.000000  celldm(3)=   0.000000
     celldm(4)=   0.000000  celldm(5)=   0.000000  celldm(6)=   0.000000

     crystal axes: (cart. coord. in units of alat)
               a(1) = (   1.000000   0.000000   0.000000 )
               a(2) = (   0.000000   1.000000   0.000000 )
               a(3) = (   0.000000   0.000000   1.000000 )

     reciprocal axes: (cart. coord. in units 2 pi/alat)
               b(1) = (  1.000000  0.000000  0.000000 )
               b(2) = (  0.000000  1.000000  0.000000 )
               b(3) = (  0.000000  0.000000  1.000000 )

     PseudoPot. # 1 for Si read from file:
     ../Si.pbe-rrkj.UPF
     MD5 check sum: cf7ab5690cd9a85b22c4813f7e365554
     Pseudo is Norm-conserving, Zval =  4.0
     Generated by new atomic code, or converted to UPF format
     Using radial grid of  883 points,  3 beta functions with:
                l(1) =   0
                l(2) =   0
                l(3) =   1

     atomic species   valence    mass     pseudopotential
        Si             4.00    28.08600     Si( 1.00)

      6 Sym. Ops. (no inversion) found

   Cartesian axes

     site n.     atom                  positions (alat units)
         1           Si  tau(   1) = (   0.3669965   0.3669965   0.0000000  )
         2           Si  tau(   2) = (   0.8669965   0.3669965   0.0000000  )
         3           Si  tau(   3) = (   0.3669965   0.8669965   0.0000000  )
         4           Si  tau(   4) = (   0.8669965   0.8669965   0.0000000  )
         5           Si  tau(   5) = (   0.3669965   0.3669965   0.5000000  )
         6           Si  tau(   6) = (   0.8669965   0.3669965   0.5000000  )
         7           Si  tau(   7) = (   0.3669965   0.8669965   0.5000000  )
         8           Si  tau(   8) = (   0.8669965   0.8669965   0.5000000  )
         9           Si  tau(   9) = (   0.0000000   0.0000000   0.0000000  )
        10           Si  tau(  10) = (   0.5000000   0.0000000   0.0000000  )
        11           Si  tau(  11) = (   0.0000000   0.5000000   0.0000000  )
        12           Si  tau(  12) = (   0.5000000   0.5000000   0.0000000  )
        13           Si  tau(  13) = (   0.0000000   0.0000000   0.5000000  )
        14           Si  tau(  14) = (   0.5000000   0.0000000   0.5000000  )
        15           Si  tau(  15) = (   0.0000000   0.5000000   0.5000000  )
        16           Si  tau(  16) = (   0.5000000   0.5000000   0.5000000  )
        17           Si  tau(  17) = (   0.3669965   0.0000000   0.3669965  )
        18           Si  tau(  18) = (   0.8669965   0.0000000   0.3669965  )
        19           Si  tau(  19) = (   0.3669965   0.5000000   0.3669965  )
        20           Si  tau(  20) = (   0.8669965   0.5000000   0.3669965  )
        21           Si  tau(  21) = (   0.3669965   0.0000000   0.8669965  )
        22           Si  tau(  22) = (   0.8669965   0.0000000   0.8669965  )
        23           Si  tau(  23) = (   0.3669965   0.5000000   0.8669965  )
        24           Si  tau(  24) = (   0.8669965   0.5000000   0.8669965  )
        25           Si  tau(  25) = (   0.0000000   0.3669965   0.3669965  )
        26           Si  tau(  26) = (   0.5000000   0.3669965   0.3669965  )
        27           Si  tau(  27) = (   0.0000000   0.8669965   0.3669965  )
        28           Si  tau(  28) = (   0.5000000   0.8669965   0.3669965  )
        29           Si  tau(  29) = (   0.0000000   0.3669965   0.8669965  )
        30           Si  tau(  30) = (   0.5000000   0.3669965   0.8669965  )
        31           Si  tau(  31) = (   0.0000000   0.8669965   0.8669965  )
        32           Si  tau(  32) = (   0.5000000   0.8669965   0.8669965  )
        33           Si  tau(  33) = (   0.0504947   0.0504947   0.6834982  )
        34           Si  tau(  34) = (   0.5504947   0.0504947   0.6834982  )
        35           Si  tau(  35) = (   0.0504947   0.5504947   0.6834982  )
        36           Si  tau(  36) = (   0.5504947   0.5504947   0.6834982  )
        37           Si  tau(  37) = (   0.0504947   0.0504947   0.1834982  )
        38           Si  tau(  38) = (   0.5504947   0.0504947   0.1834982  )
        39           Si  tau(  39) = (   0.0504947   0.5504947   0.1834982  )
        40           Si  tau(  40) = (   0.5504947   0.5504947   0.1834982  )
        41           Si  tau(  41) = (   0.6834982   0.6834982   0.6834982  )
        42           Si  tau(  42) = (   0.1834982   0.6834982   0.6834982  )
        43           Si  tau(  43) = (   0.6834982   0.1834982   0.6834982  )
        44           Si  tau(  44) = (   0.1834982   0.1834982   0.6834982  )
        45           Si  tau(  45) = (   0.6834982   0.6834982   0.1834982  )
        46           Si  tau(  46) = (   0.1834982   0.6834982   0.1834982  )
        47           Si  tau(  47) = (   0.6834982   0.1834982   0.1834982  )
        48           Si  tau(  48) = (   0.1834982   0.1834982   0.1834982  )
        49           Si  tau(  49) = (   0.0504947   0.6834982   0.0504947  )
        50           Si  tau(  50) = (   0.5504947   0.6834982   0.0504947  )
        51           Si  tau(  51) = (   0.0504947   0.1834982   0.0504947  )
        52           Si  tau(  52) = (   0.5504947   0.1834982   0.0504947  )
        53           Si  tau(  53) = (   0.0504947   0.6834982   0.5504947  )
        54           Si  tau(  54) = (   0.5504947   0.6834982   0.5504947  )
        55           Si  tau(  55) = (   0.0504947   0.1834982   0.5504947  )
        56           Si  tau(  56) = (   0.5504947   0.1834982   0.5504947  )
        57           Si  tau(  57) = (   0.6834982   0.0504947   0.0504947  )
        58           Si  tau(  58) = (   0.1834982   0.0504947   0.0504947  )
        59           Si  tau(  59) = (   0.6834982   0.5504947   0.0504947  )
        60           Si  tau(  60) = (   0.1834982   0.5504947   0.0504947  )
        61           Si  tau(  61) = (   0.6834982   0.0504947   0.5504947  )
        62           Si  tau(  62) = (   0.1834982   0.0504947   0.5504947  )
        63           Si  tau(  63) = (   0.6834982   0.5504947   0.5504947  )
        64           Si  tau(  64) = (   0.1834982   0.5504947   0.5504947  )

     number of k points=     6
                       cart. coord. in units 2pi/alat
        k(    1) = (   0.1666667   0.1666667   0.1666667), wk =   0.1481481
        k(    2) = (   0.1666667   0.1666667  -0.5000000), wk =   0.4444444
        k(    3) = (   0.1666667  -0.5000000  -0.5000000), wk =   0.4444444
        k(    4) = (  -0.5000000  -0.5000000  -0.5000000), wk =   0.0740741
        k(    5) = (   0.1666667  -0.1666667   0.1666667), wk =   0.4444444
        k(    6) = (   0.1666667  -0.1666667  -0.5000000), wk =   0.4444444

     Initial potential from superposition of free atoms

     starting charge     255.9646, renormalised to     256.0000
     Starting wfcs are  256 randomized atomic wfcs

     Self-consistent Calculation

     iteration #  1     ecut=    30.00 Ry     beta= 0.70
     Davidson diagonalization with overlap
     ethr =  1.00E-02,  avg # of iterations =  3.0

     total energy              =    -491.28032361 Ry
     estimated scf accuracy    <       6.73600146 Ry

[...]

     total energy              =    -493.77413762 Ry
     estimated scf accuracy    <       0.00000129 Ry

     iteration # 22     ecut=    30.00 Ry     beta= 0.70
     Davidson diagonalization with overlap
     ethr =  5.05E-10,  avg # of iterations =  4.8

     End of self-consistent calculation

          k = 0.1667 0.1667 0.1667 ( 24483 PWs)   bands (ev):

    -9.5277  -9.3980  -9.3979  -9.3979  -9.2867  -9.2866  -9.2866  -9.1926
    -8.2707  -8.2391  -8.2390  -8.2390  -8.1703  -8.1701  -8.1701  -8.0397
    -3.7177  -3.5640  -3.5640  -3.5640  -3.4465  -3.4464  -3.4464  -3.3455
    -2.9727  -2.9727  -2.9727  -2.7304  -2.7304  -2.4436  -2.4436  -2.4436
    -1.9477  -1.9477  -1.8249  -1.8249  -1.8249  -1.7637  -1.7637  -1.7637
    -1.1021  -1.1021  -1.1021  -0.9674  -0.9673  -0.9673  -0.7676  -0.7676
    -0.7676  -0.7395  -0.7395  -0.5497  -0.5497  -0.1311   0.0349   0.0351
     0.0351   0.1698   0.1699   0.1699   0.1982   0.2044   0.2044   0.2044
     0.9750   1.7485   1.7744   1.7744   1.7744   2.0999   2.0999   2.1000
     2.1918   2.1918   2.1918   2.4291   2.4291   2.4291   2.5136   2.5136
     2.9466   2.9466   2.9466   2.9486   2.9486   2.9486   3.1508   3.1508
     3.1509   3.1800   3.1800   3.1800   3.1938   3.2781   3.2781   3.2781
     3.5166   3.5166   3.7230   3.7879   3.7879   3.7879   3.8992   3.8992
     3.8992   3.9784   3.9784   3.9785   4.0636   4.0636   4.5098   4.5098
     4.8569   4.8569   5.2643   5.2643   5.2643   5.3563   5.3563   5.3563
     5.3715   5.3715   5.3808   5.3808   5.3808   5.7077   5.7077   5.7077

[...]

          k =-0.5000-0.5000-0.5000 ( 24464 PWs)   bands (ev):

[...]

          k = 0.1667-0.1667-0.5000 ( 24508 PWs)   bands (ev):

    -9.4669  -9.4668  -9.3455  -9.3455  -9.3434  -9.3434  -9.2421  -9.2421
    -8.2514  -8.2514  -8.2054  -8.2054  -8.2002  -8.2001  -8.0994  -8.0994
    -3.6590  -3.6589  -3.5305  -3.5305  -3.4624  -3.4624  -3.4123  -3.4122
    -2.8389  -2.8388  -2.7648  -2.7648  -2.6989  -2.6989  -2.4078  -2.4077
    -2.2952  -2.2951  -1.8842  -1.8842  -1.8081  -1.8081  -1.5486  -1.5485
    -1.3602  -1.3602  -1.1640  -1.1640  -1.0384  -1.0383  -0.6728  -0.6728
    -0.5098  -0.5098  -0.2151  -0.2150  -0.1918  -0.1918  -0.1035  -0.1035
     0.1073   0.1073   0.1367   0.1367   0.1657   0.1657   0.1772   0.1773
     1.4227   1.4227   1.8234   1.8234   1.8621   1.8621   1.9150   1.9150
     2.3266   2.3267   2.3699   2.3699   2.5388   2.5388   2.5773   2.5774
     2.6906   2.6907   2.6995   2.6995   2.8246   2.8246   3.1348   3.1348
     3.1353   3.1353   3.1388   3.1388   3.1613   3.1613   3.4967   3.4967
     3.6165   3.6166   3.6167   3.6167   3.7398   3.7398   3.8344   3.8344
     3.9713   3.9713   4.0321   4.0321   4.1684   4.1684   4.3056   4.3056
     5.0502   5.0502   5.0780   5.0780   5.2257   5.2258   5.2518   5.2518
     5.2875   5.2875   5.3985   5.3985   5.5043   5.5043   5.7542   5.7542

     highest occupied level (ev):     5.7542

!    total energy              =    -493.77413679 Ry
     estimated scf accuracy    <       0.00000089 Ry

     The total energy is the sum of the following terms:
     one-electron contribution =     -16.51699014 Ry
     hartree contribution      =     113.36396198 Ry
     xc contribution           =    -159.72332537 Ry
     ewald contribution        =    -430.89778326 Ry

     convergence has been achieved in  22 iterations

     Forces acting on atoms (cartesian axes, Ry/au):

     atom    1 type  1   force =    -0.23243463   -0.23243463    0.26916343
     atom    2 type  1   force =    -0.23245741   -0.23244092    0.26917317
     atom    3 type  1   force =    -0.23244092   -0.23245741    0.26917317
     atom    4 type  1   force =    -0.23246618   -0.23246618    0.26917235
     atom    5 type  1   force =    -0.23241025   -0.23241025    0.26915158
     atom    6 type  1   force =    -0.23243677   -0.23242977    0.26916763
     atom    7 type  1   force =    -0.23242977   -0.23243677    0.26916763
     atom    8 type  1   force =    -0.23245035   -0.23245035    0.26916849
     atom    9 type  1   force =     0.09020732    0.09020732    0.09020732
     atom   10 type  1   force =     0.09022101    0.09021493    0.09021493
     atom   11 type  1   force =     0.09021493    0.09022101    0.09021493
     atom   12 type  1   force =     0.09020307    0.09020307    0.09020363
     atom   13 type  1   force =     0.09021493    0.09021493    0.09022101
     atom   14 type  1   force =     0.09020307    0.09020363    0.09020307
     atom   15 type  1   force =     0.09020363    0.09020307    0.09020307
     atom   16 type  1   force =     0.09017025    0.09017025    0.09017025
     atom   17 type  1   force =    -0.23243463    0.26916343   -0.23243463
     atom   18 type  1   force =    -0.23245741    0.26917317   -0.23244092
     atom   19 type  1   force =    -0.23241025    0.26915158   -0.23241025
     atom   20 type  1   force =    -0.23243677    0.26916763   -0.23242977
     atom   21 type  1   force =    -0.23244092    0.26917317   -0.23245741
     atom   22 type  1   force =    -0.23246618    0.26917235   -0.23246618
     atom   23 type  1   force =    -0.23242977    0.26916763   -0.23243677
     atom   24 type  1   force =    -0.23245035    0.26916849   -0.23245035
     atom   25 type  1   force =     0.26916343   -0.23243463   -0.23243463
     atom   26 type  1   force =     0.26915158   -0.23241025   -0.23241025
     atom   27 type  1   force =     0.26917317   -0.23245741   -0.23244092
     atom   28 type  1   force =     0.26916763   -0.23243677   -0.23242977
     atom   29 type  1   force =     0.26917317   -0.23244092   -0.23245741
     atom   30 type  1   force =     0.26916763   -0.23242977   -0.23243677
     atom   31 type  1   force =     0.26917235   -0.23246618   -0.23246618
     atom   32 type  1   force =     0.26916849   -0.23245035   -0.23245035
     atom   33 type  1   force =    -0.22108784   -0.22108784    0.33204671
     atom   34 type  1   force =    -0.22106813   -0.22107768    0.33202782
     atom   35 type  1   force =    -0.22107768   -0.22106813    0.33202782
     atom   36 type  1   force =    -0.22107060   -0.22107060    0.33202174
     atom   37 type  1   force =    -0.22110991   -0.22110991    0.33207825
     atom   38 type  1   force =    -0.22108006   -0.22109733    0.33205701
     atom   39 type  1   force =    -0.22109733   -0.22108006    0.33205701
     atom   40 type  1   force =    -0.22107222   -0.22107222    0.33203889
     atom   41 type  1   force =     0.21560492    0.21560492    0.21560492
     atom   42 type  1   force =     0.21563615    0.21561306    0.21561306
     atom   43 type  1   force =     0.21561306    0.21563615    0.21561306
     atom   44 type  1   force =     0.21564303    0.21564303    0.21563481
     atom   45 type  1   force =     0.21561306    0.21561306    0.21563615
     atom   46 type  1   force =     0.21564303    0.21563481    0.21564303
     atom   47 type  1   force =     0.21563481    0.21564303    0.21564303
     atom   48 type  1   force =     0.21566112    0.21566112    0.21566112
     atom   49 type  1   force =    -0.22108784    0.33204671   -0.22108784
     atom   50 type  1   force =    -0.22106813    0.33202782   -0.22107768
     atom   51 type  1   force =    -0.22110991    0.33207825   -0.22110991
     atom   52 type  1   force =    -0.22108006    0.33205701   -0.22109733
     atom   53 type  1   force =    -0.22107768    0.33202782   -0.22106813
     atom   54 type  1   force =    -0.22107060    0.33202174   -0.22107060
     atom   55 type  1   force =    -0.22109733    0.33205701   -0.22108006
     atom   56 type  1   force =    -0.22107222    0.33203889   -0.22107222
     atom   57 type  1   force =     0.33204671   -0.22108784   -0.22108784
     atom   58 type  1   force =     0.33207825   -0.22110991   -0.22110991
     atom   59 type  1   force =     0.33202782   -0.22106813   -0.22107768
     atom   60 type  1   force =     0.33205701   -0.22108006   -0.22109733
     atom   61 type  1   force =     0.33202782   -0.22107768   -0.22106813
     atom   62 type  1   force =     0.33205701   -0.22109733   -0.22108006
     atom   63 type  1   force =     0.33202174   -0.22107060   -0.22107060
     atom   64 type  1   force =     0.33203889   -0.22107222   -0.22107222

     Total force =     3.261230     Total SCF correction =     0.001647

     Computing stress (Cartesian axis) and pressure

          total   stress  (Ry/bohr**3)                   (kbar)     P=      356.41
   0.00242283   0.00008594   0.00008594          356.41       12.64       12.64
   0.00008594   0.00242283   0.00008594           12.64      356.41       12.64
   0.00008594   0.00008594   0.00242283           12.64       12.64      356.41

     Writing all to output data dir ./Si2.save/

     General routines

     Parallel routines

   This run was terminated on:  14:17:20  21Feb2022

   JOB DONE.